#=======================================================
#FHI-aims file: geometry.in
#Created using the Atomic Simulation Environment (ASE)
#=======================================================
lattice_vector 11.2469500000000000 0.0000000000000000 0.0000000000000000 
lattice_vector 0.0000000000000000 10.5616000000000003 0.0000000000000000 
lattice_vector 0.0000000000000000 0.0000000000000000 10.7388999999999992 
atom 5.2789400000000004 5.0000000000000000 5.7388999999999992 O
atom 6.2469500000000000 5.0280600000000000 5.7019799999999989 H
atom 5.0000000000000000 5.5616000000000003 5.0000000000000000 H
