  #
  lattice_vector  27.77311163 16.03481348 0.00000000
  lattice_vector  -27.77311163 16.03481348 0.00000000
  lattice_vector  0.00000000 0.00000000 52.91218494
  #
  # The hydrogen layer
  #
  atom 1.54295065 0.89082297 5.03925571 H
  atom 3.08590129 3.56329188 5.03925571 H
  atom -0.00000000 3.56329188 5.03925571 H
  atom 6.17180259 3.56329188 5.03925571 H
  atom 7.71475323 6.23576080 5.03925571 H
  atom 4.62885194 6.23576080 5.03925571 H
  atom 10.80065452 6.23576080 5.03925571 H
  atom 12.34360517 8.90822971 5.03925571 H
  atom 9.25770388 8.90822971 5.03925571 H
  atom 15.42950646 8.90822971 5.03925571 H
  atom 16.97245711 11.58069862 5.03925571 H
  atom 13.88655582 11.58069862 5.03925571 H
  atom 20.05835840 11.58069862 5.03925571 H
  atom 21.60130905 14.25316754 5.03925571 H
  atom 18.51540776 14.25316754 5.03925571 H
  atom 24.68721034 14.25316754 5.03925571 H
  atom -1.54295065 0.89082297 5.03925571 H
  atom 23.14425969 16.92563645 5.03925571 H
  atom -3.08590129 3.56329188 5.03925571 H
  atom -1.54295065 6.23576080 5.03925571 H
  atom -4.62885194 6.23576080 5.03925571 H
  atom 1.54295065 6.23576080 5.03925571 H
  atom 3.08590129 8.90822971 5.03925571 H
  atom 0.00000000 8.90822971 5.03925571 H
  atom 6.17180259 8.90822971 5.03925571 H
  atom 7.71475323 11.58069862 5.03925571 H
  atom 4.62885194 11.58069862 5.03925571 H
  atom 10.80065452 11.58069862 5.03925571 H
  atom 12.34360517 14.25316754 5.03925571 H
  atom 9.25770388 14.25316754 5.03925571 H
  atom 15.42950646 14.25316754 5.03925571 H
  atom 16.97245711 16.92563645 5.03925571 H
  atom 13.88655582 16.92563645 5.03925571 H
  atom 20.05835840 16.92563645 5.03925571 H
  atom -6.17180259 3.56329188 5.03925571 H
  atom 18.51540776 19.59810536 5.03925571 H
  atom -7.71475323 6.23576080 5.03925571 H
  atom -6.17180259 8.90822971 5.03925571 H
  atom -9.25770388 8.90822971 5.03925571 H
  atom -3.08590129 8.90822971 5.03925571 H
  atom -1.54295065 11.58069862 5.03925571 H
  atom -4.62885194 11.58069862 5.03925571 H
  atom 1.54295065 11.58069862 5.03925571 H
  atom 3.08590129 14.25316754 5.03925571 H
  atom -0.00000000 14.25316754 5.03925571 H
  atom 6.17180259 14.25316754 5.03925571 H
  atom 7.71475323 16.92563645 5.03925571 H
  atom 4.62885194 16.92563645 5.03925571 H
  atom 10.80065452 16.92563645 5.03925571 H
  atom 12.34360517 19.59810536 5.03925571 H
  atom 9.25770388 19.59810536 5.03925571 H
  atom 15.42950646 19.59810536 5.03925571 H
  atom -10.80065452 6.23576080 5.03925571 H
  atom 13.88655582 22.27057427 5.03925571 H
  atom -12.34360517 8.90822971 5.03925571 H
  atom -10.80065452 11.58069862 5.03925571 H
  atom -13.88655582 11.58069862 5.03925571 H
  atom -7.71475323 11.58069862 5.03925571 H
  atom -6.17180259 14.25316754 5.03925571 H
  atom -9.25770388 14.25316754 5.03925571 H
  atom -3.08590129 14.25316754 5.03925571 H
  atom -1.54295065 16.92563645 5.03925571 H
  atom -4.62885194 16.92563645 5.03925571 H
  atom 1.54295065 16.92563645 5.03925571 H
  atom 3.08590129 19.59810536 5.03925571 H
  atom -0.00000000 19.59810536 5.03925571 H
  atom 6.17180259 19.59810536 5.03925571 H
  atom 7.71475323 22.27057427 5.03925571 H
  atom 4.62885194 22.27057427 5.03925571 H
  atom 10.80065452 22.27057427 5.03925571 H
  atom -15.42950646 8.90822971 5.03925571 H
  atom 9.25770388 24.94304319 5.03925571 H
  atom -16.97245711 11.58069862 5.03925571 H
  atom -15.42950646 14.25316754 5.03925571 H
  atom -18.51540776 14.25316754 5.03925571 H
  atom -12.34360517 14.25316754 5.03925571 H
  atom -10.80065452 16.92563645 5.03925571 H
  atom -13.88655582 16.92563645 5.03925571 H
  atom -7.71475323 16.92563645 5.03925571 H
  atom -6.17180259 19.59810536 5.03925571 H
  atom -9.25770388 19.59810536 5.03925571 H
  atom -3.08590129 19.59810536 5.03925571 H
  atom -1.54295065 22.27057427 5.03925571 H
  atom -4.62885194 22.27057427 5.03925571 H
  atom 1.54295065 22.27057427 5.03925571 H
  atom 3.08590129 24.94304319 5.03925571 H
  atom -0.00000000 24.94304319 5.03925571 H
  atom 6.17180259 24.94304319 5.03925571 H
  atom -20.05835840 11.58069862 5.03925571 H
  atom 4.62885194 27.61551210 5.03925571 H
  atom -21.60130905 14.25316754 5.03925571 H
  atom -20.05835840 16.92563645 5.03925571 H
  atom -23.14425969 16.92563645 5.03925571 H
  atom -16.97245711 16.92563645 5.03925571 H
  atom -15.42950646 19.59810536 5.03925571 H
  atom -18.51540776 19.59810536 5.03925571 H
  atom -12.34360517 19.59810536 5.03925571 H
  atom -10.80065452 22.27057427 5.03925571 H
  atom -13.88655582 22.27057427 5.03925571 H
  atom -7.71475323 22.27057427 5.03925571 H
  atom -6.17180259 24.94304319 5.03925571 H
  atom -9.25770388 24.94304319 5.03925571 H
  atom -3.08590129 24.94304319 5.03925571 H
  atom -1.54295065 27.61551210 5.03925571 H
  atom -4.62885194 27.61551210 5.03925571 H
  atom 1.54295065 27.61551210 5.03925571 H
  atom -24.68721034 14.25316754 5.03925571 H
  atom 0.00000000 30.28798101 5.03925571 H
  # The carbon layer 1
  #
  atom 1.54295065 0.89082297 6.14412707 C
  atom 3.08590129 3.56329188 6.14412707 C
  atom -0.00000000 3.56329188 6.14412707 C
  atom 6.17180259 3.56329188 6.14412707 C
  atom 7.71475323 6.23576080 6.14412707 C
  atom 4.62885194 6.23576080 6.14412707 C
  atom 10.80065452 6.23576080 6.14412707 C
  atom 12.34360517 8.90822971 6.14412707 C
  atom 9.25770388 8.90822971 6.14412707 C
  atom 15.42950646 8.90822971 6.14412707 C
  atom 16.97245711 11.58069862 6.14412707 C
  atom 13.88655582 11.58069862 6.14412707 C
  atom 20.05835840 11.58069862 6.14412707 C
  atom 21.60130905 14.25316754 6.14412707 C
  atom 18.51540776 14.25316754 6.14412707 C
  atom 24.68721034 14.25316754 6.14412707 C
  atom -1.54295065 0.89082297 6.14412707 C
  atom 23.14425969 16.92563645 6.14412707 C
  atom -3.08590129 3.56329188 6.14412707 C
  atom -1.54295065 6.23576080 6.14412707 C
  atom -4.62885194 6.23576080 6.14412707 C
  atom 1.54295065 6.23576080 6.14412707 C
  atom 3.08590129 8.90822971 6.14412707 C
  atom 0.00000000 8.90822971 6.14412707 C
  atom 6.17180259 8.90822971 6.14412707 C
  atom 7.71475323 11.58069862 6.14412707 C
  atom 4.62885194 11.58069862 6.14412707 C
  atom 10.80065452 11.58069862 6.14412707 C
  atom 12.34360517 14.25316754 6.14412707 C
  atom 9.25770388 14.25316754 6.14412707 C
  atom 15.42950646 14.25316754 6.14412707 C
  atom 16.97245711 16.92563645 6.14412707 C
  atom 13.88655582 16.92563645 6.14412707 C
  atom 20.05835840 16.92563645 6.14412707 C
  atom -6.17180259 3.56329188 6.14412707 C
  atom 18.51540776 19.59810536 6.14412707 C
  atom -7.71475323 6.23576080 6.14412707 C
  atom -6.17180259 8.90822971 6.14412707 C
  atom -9.25770388 8.90822971 6.14412707 C
  atom -3.08590129 8.90822971 6.14412707 C
  atom -1.54295065 11.58069862 6.14412707 C
  atom -4.62885194 11.58069862 6.14412707 C
  atom 1.54295065 11.58069862 6.14412707 C
  atom 3.08590129 14.25316754 6.14412707 C
  atom -0.00000000 14.25316754 6.14412707 C
  atom 6.17180259 14.25316754 6.14412707 C
  atom 7.71475323 16.92563645 6.14412707 C
  atom 4.62885194 16.92563645 6.14412707 C
  atom 10.80065452 16.92563645 6.14412707 C
  atom 12.34360517 19.59810536 6.14412707 C
  atom 9.25770388 19.59810536 6.14412707 C
  atom 15.42950646 19.59810536 6.14412707 C
  atom -10.80065452 6.23576080 6.14412707 C
  atom 13.88655582 22.27057427 6.14412707 C
  atom -12.34360517 8.90822971 6.14412707 C
  atom -10.80065452 11.58069862 6.14412707 C
  atom -13.88655582 11.58069862 6.14412707 C
  atom -7.71475323 11.58069862 6.14412707 C
  atom -6.17180259 14.25316754 6.14412707 C
  atom -9.25770388 14.25316754 6.14412707 C
  atom -3.08590129 14.25316754 6.14412707 C
  atom -1.54295065 16.92563645 6.14412707 C
  atom -4.62885194 16.92563645 6.14412707 C
  atom 1.54295065 16.92563645 6.14412707 C
  atom 3.08590129 19.59810536 6.14412707 C
  atom -0.00000000 19.59810536 6.14412707 C
  atom 6.17180259 19.59810536 6.14412707 C
  atom 7.71475323 22.27057427 6.14412707 C
  atom 4.62885194 22.27057427 6.14412707 C
  atom 10.80065452 22.27057427 6.14412707 C
  atom -15.42950646 8.90822971 6.14412707 C
  atom 9.25770388 24.94304319 6.14412707 C
  atom -16.97245711 11.58069862 6.14412707 C
  atom -15.42950646 14.25316754 6.14412707 C
  atom -18.51540776 14.25316754 6.14412707 C
  atom -12.34360517 14.25316754 6.14412707 C
  atom -10.80065452 16.92563645 6.14412707 C
  atom -13.88655582 16.92563645 6.14412707 C
  atom -7.71475323 16.92563645 6.14412707 C
  atom -6.17180259 19.59810536 6.14412707 C
  atom -9.25770388 19.59810536 6.14412707 C
  atom -3.08590129 19.59810536 6.14412707 C
  atom -1.54295065 22.27057427 6.14412707 C
  atom -4.62885194 22.27057427 6.14412707 C
  atom 1.54295065 22.27057427 6.14412707 C
  atom 3.08590129 24.94304319 6.14412707 C
  atom -0.00000000 24.94304319 6.14412707 C
  atom 6.17180259 24.94304319 6.14412707 C
  atom -20.05835840 11.58069862 6.14412707 C
  atom 4.62885194 27.61551210 6.14412707 C
  atom -21.60130905 14.25316754 6.14412707 C
  atom -20.05835840 16.92563645 6.14412707 C
  atom -23.14425969 16.92563645 6.14412707 C
  atom -16.97245711 16.92563645 6.14412707 C
  atom -15.42950646 19.59810536 6.14412707 C
  atom -18.51540776 19.59810536 6.14412707 C
  atom -12.34360517 19.59810536 6.14412707 C
  atom -10.80065452 22.27057427 6.14412707 C
  atom -13.88655582 22.27057427 6.14412707 C
  atom -7.71475323 22.27057427 6.14412707 C
  atom -6.17180259 24.94304319 6.14412707 C
  atom -9.25770388 24.94304319 6.14412707 C
  atom -3.08590129 24.94304319 6.14412707 C
  atom -1.54295065 27.61551210 6.14412707 C
  atom -4.62885194 27.61551210 6.14412707 C
  atom 1.54295065 27.61551210 6.14412707 C
  atom -24.68721034 14.25316754 6.14412707 C
  atom 0.00000000 30.28798101 6.14412707 C
  # The silicon layer 1
  #
  atom 0.00000000 0.00000000 6.77403403 Si
  atom 1.54295065 2.67246891 6.77403403 Si
  atom -1.54295065 2.67246891 6.77403403 Si
  atom 4.62885194 2.67246891 6.77403403 Si
  atom 6.17180259 5.34493783 6.77403403 Si
  atom 3.08590129 5.34493783 6.77403403 Si
  atom 9.25770388 5.34493783 6.77403403 Si
  atom 10.80065452 8.01740674 6.77403403 Si
  atom 7.71475323 8.01740674 6.77403403 Si
  atom 13.88655582 8.01740674 6.77403403 Si
  atom 15.42950646 10.68987565 6.77403403 Si
  atom 12.34360517 10.68987565 6.77403403 Si
  atom 18.51540776 10.68987565 6.77403403 Si
  atom 20.05835840 13.36234456 6.77403403 Si
  atom 16.97245711 13.36234456 6.77403403 Si
  atom 23.14425969 13.36234456 6.77403403 Si
  atom 24.68721034 16.03481348 6.77403403 Si
  atom 21.60130905 16.03481348 6.77403403 Si
  atom -4.62885194 2.67246891 6.77403403 Si
  atom -3.08590129 5.34493783 6.77403403 Si
  atom -6.17180259 5.34493783 6.77403403 Si
  atom 0.00000000 5.34493783 6.77403403 Si
  atom 1.54295065 8.01740674 6.77403403 Si
  atom -1.54295065 8.01740674 6.77403403 Si
  atom 4.62885194 8.01740674 6.77403403 Si
  atom 6.17180259 10.68987565 6.77403403 Si
  atom 3.08590129 10.68987565 6.77403403 Si
  atom 9.25770388 10.68987565 6.77403403 Si
  atom 10.80065452 13.36234456 6.77403403 Si
  atom 7.71475323 13.36234456 6.77403403 Si
  atom 13.88655582 13.36234456 6.77403403 Si
  atom 15.42950646 16.03481348 6.77403403 Si
  atom 12.34360517 16.03481348 6.77403403 Si
  atom 18.51540776 16.03481348 6.77403403 Si
  atom 20.05835840 18.70728239 6.77403403 Si
  atom 16.97245711 18.70728239 6.77403403 Si
  atom -9.25770388 5.34493783 6.77403403 Si
  atom -7.71475323 8.01740674 6.77403403 Si
  atom -10.80065452 8.01740674 6.77403403 Si
  atom -4.62885194 8.01740674 6.77403403 Si
  atom -3.08590129 10.68987565 6.77403403 Si
  atom -6.17180259 10.68987565 6.77403403 Si
  atom -0.00000000 10.68987565 6.77403403 Si
  atom 1.54295065 13.36234456 6.77403403 Si
  atom -1.54295065 13.36234456 6.77403403 Si
  atom 4.62885194 13.36234456 6.77403403 Si
  atom 6.17180259 16.03481348 6.77403403 Si
  atom 3.08590129 16.03481348 6.77403403 Si
  atom 9.25770388 16.03481348 6.77403403 Si
  atom 10.80065452 18.70728239 6.77403403 Si
  atom 7.71475323 18.70728239 6.77403403 Si
  atom 13.88655582 18.70728239 6.77403403 Si
  atom 15.42950646 21.37975130 6.77403403 Si
  atom 12.34360517 21.37975130 6.77403403 Si
  atom -13.88655582 8.01740674 6.77403403 Si
  atom -12.34360517 10.68987565 6.77403403 Si
  atom -15.42950646 10.68987565 6.77403403 Si
  atom -9.25770388 10.68987565 6.77403403 Si
  atom -7.71475323 13.36234456 6.77403403 Si
  atom -10.80065452 13.36234456 6.77403403 Si
  atom -4.62885194 13.36234456 6.77403403 Si
  atom -3.08590129 16.03481348 6.77403403 Si
  atom -6.17180259 16.03481348 6.77403403 Si
  atom -0.00000000 16.03481348 6.77403403 Si
  atom 1.54295065 18.70728239 6.77403403 Si
  atom -1.54295065 18.70728239 6.77403403 Si
  atom 4.62885194 18.70728239 6.77403403 Si
  atom 6.17180259 21.37975130 6.77403403 Si
  atom 3.08590129 21.37975130 6.77403403 Si
  atom 9.25770388 21.37975130 6.77403403 Si
  atom 10.80065452 24.05222022 6.77403403 Si
  atom 7.71475323 24.05222022 6.77403403 Si
  atom -18.51540776 10.68987565 6.77403403 Si
  atom -16.97245711 13.36234456 6.77403403 Si
  atom -20.05835840 13.36234456 6.77403403 Si
  atom -13.88655582 13.36234456 6.77403403 Si
  atom -12.34360517 16.03481348 6.77403403 Si
  atom -15.42950646 16.03481348 6.77403403 Si
  atom -9.25770388 16.03481348 6.77403403 Si
  atom -7.71475323 18.70728239 6.77403403 Si
  atom -10.80065452 18.70728239 6.77403403 Si
  atom -4.62885194 18.70728239 6.77403403 Si
  atom -3.08590129 21.37975130 6.77403403 Si
  atom -6.17180259 21.37975130 6.77403403 Si
  atom -0.00000000 21.37975130 6.77403403 Si
  atom 1.54295065 24.05222022 6.77403403 Si
  atom -1.54295065 24.05222022 6.77403403 Si
  atom 4.62885194 24.05222022 6.77403403 Si
  atom 6.17180259 26.72468913 6.77403403 Si
  atom 3.08590129 26.72468913 6.77403403 Si
  atom -23.14425969 13.36234456 6.77403403 Si
  atom -21.60130905 16.03481348 6.77403403 Si
  atom -24.68721034 16.03481348 6.77403403 Si
  atom -18.51540776 16.03481348 6.77403403 Si
  atom -16.97245711 18.70728239 6.77403403 Si
  atom -20.05835840 18.70728239 6.77403403 Si
  atom -13.88655582 18.70728239 6.77403403 Si
  atom -12.34360517 21.37975130 6.77403403 Si
  atom -15.42950646 21.37975130 6.77403403 Si
  atom -9.25770388 21.37975130 6.77403403 Si
  atom -7.71475323 24.05222022 6.77403403 Si
  atom -10.80065452 24.05222022 6.77403403 Si
  atom -4.62885194 24.05222022 6.77403403 Si
  atom -3.08590129 26.72468913 6.77403403 Si
  atom -6.17180259 26.72468913 6.77403403 Si
  atom -0.00000000 26.72468913 6.77403403 Si
  atom 1.54295065 29.39715804 6.77403403 Si
  atom -1.54295065 29.39715804 6.77403403 Si
  # The carbon layer 2
  #
  atom -0.00029645 10.68301203 8.68677057 C
  atom -9.25167059 26.72688318 8.68642986 C
  atom -18.52142968 10.69344018 8.68492767 C
  atom 4.63883384 8.01343981 8.68373726 C
  atom 7.71769637 8.01064615 8.68324586 C
  atom -4.63905679 8.01201895 8.68248613 C
  atom 9.25854005 5.34726990 8.68239801 C
  atom 18.51191440 21.38007722 8.68205642 C
  atom -1.53653465 24.04570895 8.68194295 C
  atom 6.18114906 5.34637000 8.68193519 C
  atom 0.00167772 21.37899747 8.68184935 C
  atom -4.61789756 24.04845575 8.68178386 C
  atom -6.18329333 5.34456092 8.68166663 C
  atom 20.05142902 18.71419382 8.68023704 C
  atom 1.53991927 24.04602494 8.68009236 C
  atom 10.79909022 8.00920554 8.67963269 C
  atom -20.05484977 18.71562979 8.67908751 C
  atom 1.54717303 8.01854999 8.67871559 C
  atom 3.08616081 10.68390061 8.67854890 C
  atom -7.71552817 8.01110450 8.67817219 C
  atom -3.07886946 21.38457382 8.67808443 C
  atom -1.54832651 8.01751101 8.67801276 C
  atom 20.05553894 13.36303195 8.67715391 C
  atom -6.16808891 26.72110544 8.67713785 C
  atom 15.43270984 10.68546305 8.67700433 C
  atom 16.97604224 13.35970630 8.67630014 C
  atom 6.17125343 26.72320973 8.67612838 C
  atom 18.51312484 16.03703252 8.67586213 C
  atom -3.08608239 10.68279117 8.67576311 C
  atom 1.53883847 13.35841520 8.67575571 C
  atom -20.05756264 13.36527762 8.67573002 C
  atom 4.62692746 24.05176821 8.67509332 C
  atom 6.17635655 10.67639175 8.67497223 C
  atom -7.70702472 24.05748936 8.67489296 C
  atom 7.71348743 24.05878814 8.67483828 C
  atom -1.53741274 18.71500081 8.67477980 C
  atom 16.97517429 18.70775882 8.67434152 C
  atom 1.53726834 18.71285383 8.67428839 C
  atom 3.08354026 21.38466433 8.67407161 C
  atom -10.79780882 8.00936952 8.67401828 C
  atom 10.80021732 24.05862439 8.67369753 C
  atom 15.43586481 21.38275108 8.67366367 C
  atom -18.51624577 16.03784393 8.67363754 C
  atom 3.09162029 5.35400696 8.67341394 C
  atom -3.09397593 5.35276218 8.67304079 C
  atom -3.08811170 26.71702389 8.67259761 C
  atom 21.59011070 16.03584771 8.67221544 C
  atom -16.97774833 18.70708743 8.67208103 C
  atom -1.54017673 13.35859390 8.67206490 C
  atom 3.08969154 26.71777148 8.67179847 C
  atom -16.97982099 13.35933093 8.67178510 C
  atom -21.59313063 16.03767577 8.67156169 C
  atom -10.79714243 24.05724470 8.67148127 C
  atom -6.17121994 10.67914240 8.67130699 C
  atom -13.88654041 24.05052806 8.67128295 C
  atom 15.43701772 16.03910053 8.67095527 C
  atom -15.43727297 21.38187267 8.67077908 C
  atom 9.26620661 10.67944364 8.67049210 C
  atom -0.00073359 16.03650596 8.67015965 C
  atom -15.43462559 10.68719718 8.67006014 C
  atom 4.64026274 2.68215225 8.66996460 C
  atom 6.16265474 21.38650177 8.66981079 C
  atom 0.00026363 26.71176977 8.66973078 C
  atom 23.12979602 18.71529757 8.66961832 C
  atom -13.88534489 8.01709394 8.66896539 C
  atom -6.15983077 21.38823429 8.66864197 C
  atom 12.34740354 10.68196814 8.66817799 C
  atom 4.61755018 18.70597568 8.66539936 C
  atom 13.88913111 18.71819999 8.66519731 C
  atom -15.43957542 16.03120364 8.66401468 C
  atom 3.07805596 16.03307050 8.66373843 C
  atom -0.00134091 5.35142591 8.66254522 C
  atom 12.34554086 21.38809924 8.66246355 C
  atom 23.13960758 13.36029727 8.66232410 C
  atom -23.14038712 13.36158921 8.66188471 C
  atom 13.89236391 13.36010106 8.66034165 C
  atom -3.08202288 16.03719007 8.66025021 C
  atom 4.62633350 13.35529201 8.66003540 C
  atom -4.62469112 18.71249822 8.65890395 C
  atom -12.34438459 10.68422797 8.65877608 C
  atom -9.25615632 10.68428243 8.65828291 C
  atom 9.25436770 21.38742601 8.65777667 C
  atom -4.62498112 13.35766276 8.65680068 C
  atom -13.89303494 13.35810763 8.65459909 C
  atom 10.80401395 13.35755976 8.65392224 C
  atom 7.71604225 13.35566412 8.65333279 C
  atom 6.16679685 16.03346103 8.65331175 C
  atom -12.34482990 21.38330645 8.65305866 C
  atom -0.00125271 0.00255363 8.65285891 C
  atom -9.25153488 21.38704268 8.65257078 C
  atom 10.80139436 18.71305887 8.65249147 C
  atom 12.34748120 16.03784635 8.65240031 C
  atom 7.70890562 18.71100513 8.65178450 C
  atom -13.89163462 18.70784938 8.65161902 C
  atom -1.54980655 2.67894140 8.65034864 C
  atom 1.54722575 2.67956354 8.65030055 C
  atom -1.54487965 29.39206875 8.65001936 C
  atom 1.54350672 29.39238490 8.65000912 C
  atom -24.68168621 16.03926616 8.64992276 C
  atom 24.67911099 16.03850992 8.64990633 C
  atom -6.16907516 16.03725788 8.64937714 C
  atom -7.71137496 13.35959187 8.64933631 C
  atom -10.80160368 18.70801050 8.64865010 C
  atom -10.80067882 13.35705292 8.64685603 C
  atom -7.71158688 18.71445731 8.64629779 C
  atom 9.25743370 16.03494350 8.64569936 C
  atom -12.34767170 16.03041815 8.64538471 C
  atom -9.25801438 16.03320740 8.64146747 C
  # The silicon layer 2
  #
  atom 6.18008715 7.11944410 9.32107992 Si
  atom 9.25635406 7.12447897 9.31938333 Si
  atom 1.54682878 9.79512666 9.31925660 Si
  atom 18.51719176 12.47478789 9.31802260 Si
  atom -3.07332066 23.16152045 9.31770694 Si
  atom -6.18033122 7.11775617 9.31757425 Si
  atom 20.04705266 20.49384158 9.31752714 Si
  atom 7.72290341 4.46071801 9.31742383 Si
  atom 0.00150099 23.15240455 9.31723237 Si
  atom -1.54717699 9.79401358 9.31707781 Si
  atom 7.70940576 25.83578068 9.31645862 Si
  atom -7.70676463 25.83422680 9.31592481 Si
  atom -18.52070234 12.47573119 9.31450363 Si
  atom -1.54179274 20.49566484 9.31232317 Si
  atom -9.25436540 7.12402610 9.31222618 Si
  atom -0.00136556 12.46504408 9.31143982 Si
  atom 3.09369719 7.13519367 9.31105668 Si
  atom -10.79499505 25.83562048 9.31103536 Si
  atom -3.09455841 7.13336386 9.30991394 Si
  atom 4.62705975 9.79286923 9.30930950 Si
  atom -4.62893865 25.82537303 9.30877809 Si
  atom -16.97823609 9.80353877 9.30868715 Si
  atom 1.54709769 20.49378259 9.30718202 Si
  atom 16.97231200 20.48437166 9.30716150 Si
  atom 20.04765536 15.14297648 9.30556820 Si
  atom -4.62507894 9.79076982 9.30555963 Si
  atom 4.63344568 25.82808296 9.30452132 Si
  atom -6.16508015 23.17027698 9.30441579 Si
  atom 18.51598783 17.81655671 9.30423113 Si
  atom 3.08459239 23.16539124 9.30380188 Si
  atom -20.05150247 15.14517882 9.30343493 Si
  atom 12.34634911 7.12851472 9.30319782 Si
  atom 0.00055633 17.81496223 9.30316936 Si
  atom 7.72773710 9.79031590 9.30285534 Si
  atom -12.34621819 7.12777888 9.30214239 Si
  atom 13.88803888 9.79312841 9.30192644 Si
  atom -16.97680169 20.48561746 9.30139016 Si
  atom 16.97754767 15.13801025 9.30112327 Si
  atom -18.52015379 17.81756848 9.30052461 Si
  atom 4.63504930 4.46696650 9.30046683 Si
  atom -1.54769249 25.82549313 9.30034160 Si
  atom -4.63724952 4.46454602 9.29990901 Si
  atom 6.17320025 23.17148686 9.29970372 Si
  atom 10.81064444 9.78684296 9.29966492 Si
  atom 21.58788685 17.81663678 9.29807931 Si
  atom 1.54918774 25.82591121 9.29803762 Si
  atom -21.59155047 17.81827795 9.29764561 Si
  atom 1.53816813 15.14225743 9.29666567 Si
  atom -16.98238672 15.13572674 9.29504300 Si
  atom 12.34410972 23.16688661 9.29449744 Si
  atom -0.00052586 7.13285692 9.29294579 Si
  atom 3.08446976 12.46719448 9.29276768 Si
  atom 15.43194157 12.46791680 9.29224310 Si
  atom -6.17611320 28.50311741 9.29169447 Si
  atom -21.59759447 12.47005357 9.29085022 Si
  atom -7.72091113 9.79190480 9.29050718 Si
  atom -4.61901220 20.48998634 9.28995841 Si
  atom 15.42769458 17.82590416 9.28959128 Si
  atom 4.62066411 20.48541979 9.28913482 Si
  atom 9.25691658 23.16672301 9.28890332 Si
  atom -1.54156495 15.14276616 9.28831813 Si
  atom 3.07226046 17.81220259 9.28810069 Si
  atom 13.88832616 20.50401801 9.28667090 Si
  atom -13.88880173 9.79786038 9.28637435 Si
  atom -3.08405936 12.46593722 9.28559941 Si
  atom -9.25158733 23.16525044 9.28438811 Si
  atom -12.34038657 23.16118745 9.28415607 Si
  atom -15.43539151 12.46914508 9.28172396 Si
  atom -3.08187369 17.82228517 9.27507301 Si
  atom -10.79919896 9.79291091 9.27391318 Si
  atom -15.43027421 17.81557657 9.27193929 Si
  atom -1.54699105 4.45840562 9.27123389 Si
  atom 1.54431917 4.45931507 9.27108856 Si
  atom -3.08632918 28.50420048 9.27098079 Si
  atom 12.35072193 12.46643617 9.27025312 Si
  atom 23.13992270 15.14574291 9.26999275 Si
  atom 3.08587183 28.50532151 9.26970478 Si
  atom -23.14258541 15.14714776 9.26955163 Si
  atom 6.17294130 12.46447384 9.26825677 Si
  atom 4.62111223 15.13786018 9.26694511 Si
  atom 9.25959564 12.46510920 9.26645741 Si
  atom 13.88923371 15.14437478 9.26572328 Si
  atom 10.79907047 20.49979192 9.26471073 Si
  atom 7.71098144 20.49386890 9.26400400 Si
  atom -6.16978613 12.46741520 9.26243452 Si
  atom 6.16626643 17.81834497 9.26225928 Si
  atom 12.34625539 17.82038097 9.26222408 Si
  atom -13.88698424 20.49056426 9.26167927 Si
  atom -7.70927055 20.49579481 9.25994392 Si
  atom -4.62590107 15.14119546 9.25866512 Si
  atom -13.88997394 15.14051985 9.25865080 Si
  atom 3.09025710 1.78726687 9.25863847 Si
  atom -0.00082868 28.50188822 9.25857316 Si
  atom -3.09338582 1.78638058 9.25857269 Si
  atom -12.34773591 12.46864627 9.25633829 Si
  atom -6.17328124 17.82275480 9.25488284 Si
  atom -10.79652319 20.49745196 9.25333853 Si
  atom -9.25418535 12.46923686 9.25324543 Si
  atom -0.00126457 1.79477622 9.25230293 Si
  atom -26.22265258 15.14157740 9.25154822 Si
  atom 26.22003318 15.14110171 9.25133357 Si
  atom 7.71587352 15.14082766 9.25022951 Si
  atom 10.80153093 15.14526944 9.24975006 Si
  atom -12.34953791 17.81098206 9.24884198 Si
  atom 9.25397442 17.81766045 9.24872149 Si
  atom -7.71570495 15.14487579 9.24596397 Si
  atom -9.25127199 17.81503247 9.24331964 Si
  atom -10.80142789 15.14262299 9.24191064 Si
  # The carbon layer 3
  #
  atom 6.19085713 7.11518935 11.24816754 C
  atom 9.25914048 7.11974463 11.24528604 C
  atom 20.03680491 20.49432796 11.24518197 C
  atom 0.00626436 23.14683186 11.24491863 C
  atom -3.06332281 23.15711748 11.24478680 C
  atom -6.19168606 7.11308687 11.24433942 C
  atom 7.72957098 4.46255065 11.24345450 C
  atom 1.54935202 9.79640371 11.23946204 C
  atom 18.51337950 12.47620746 11.23769774 C
  atom 7.70930690 25.83441586 11.23582970 C
  atom -1.55382203 9.79405310 11.23411052 C
  atom -7.70285697 25.83147596 11.23335435 C
  atom -18.51919372 12.48037620 11.23155661 C
  atom -9.25431973 7.12287430 11.22904910 C
  atom -1.54063115 20.49951430 11.22867444 C
  atom 3.09843649 7.14031749 11.22841320 C
  atom -3.10170504 7.13648803 11.22762183 C
  atom -4.62790011 25.82061140 11.22534182 C
  atom 4.63369456 9.78918294 11.22399374 C
  atom -0.00531028 12.46063751 11.22238213 C
  atom -10.78983593 25.83574387 11.22221871 C
  atom 20.04165959 15.14221580 11.22209141 C
  atom 4.63664397 25.82623609 11.21976713 C
  atom -4.63277078 9.78734165 11.21910812 C
  atom -20.04878957 15.14617619 11.21908526 C
  atom -16.98218729 9.80981373 11.21837959 C
  atom 16.97252662 20.47775125 11.21807908 C
  atom -6.15754510 23.16909760 11.21753547 C
  atom 1.55278989 20.50080298 11.21732158 C
  atom 18.51283070 17.81279410 11.21723406 C
  atom 3.08931141 23.16788520 11.21640578 C
  atom -15.42135458 23.15924631 11.21636214 C
  atom -16.97699593 20.47538689 11.21402403 C
  atom 7.74347031 9.78422706 11.21373543 C
  atom -0.00466739 17.81529399 11.21274044 C
  atom 16.97500871 15.13831722 11.21243266 C
  atom -18.52017660 17.81235627 11.21173329 C
  atom -12.34554739 7.13367063 11.21120672 C
  atom 10.82260155 9.78173252 11.21068511 C
  atom 4.63675465 4.47512058 11.21067696 C
  atom -1.55153859 25.82102895 11.20986386 C
  atom 6.17333276 23.17298667 11.20985521 C
  atom -4.64146644 4.47187111 11.20947121 C
  atom 13.89374515 9.78601329 11.20904536 C
  atom 1.55472354 25.82247377 11.20718912 C
  atom 21.57865884 17.81497364 11.20681000 C
  atom -21.58498884 17.81739860 11.20628282 C
  atom -16.98325619 15.13364061 11.20332009 C
  atom 1.52913947 15.14049431 11.19943063 C
  atom -0.00203226 7.13585012 11.19734824 C
  atom 3.08596818 12.46443763 11.19721251 C
  atom 15.43226336 12.46807555 11.19709653 C
  atom 12.34533195 23.17759951 11.19616741 C
  atom -6.17810985 28.50164838 11.19515151 C
  atom -7.73226817 9.79034649 11.19474832 C
  atom -4.61091384 20.48326314 11.19464128 C
  atom -21.59574950 12.47071108 11.19389289 C
  atom 15.42328147 17.83619356 11.19350828 C
  atom 4.61389897 20.48001486 11.19322104 C
  atom 3.06279652 17.80408815 11.19225019 C
  atom 9.25489281 23.16998124 11.19154709 C
  atom 13.88297856 20.51792527 11.18959509 C
  atom -3.09106523 12.46401615 11.18623251 C
  atom -1.54617155 15.14530182 11.18533178 C
  atom -12.33838210 23.15932186 11.18336087 C
  atom -9.24281484 23.16683307 11.18310830 C
  atom -13.88680284 9.80091179 11.18209541 C
  atom -15.43673558 12.47157456 11.18013249 C
  atom -15.43061698 17.81134004 11.16803033 C
  atom -1.55230756 4.46447873 11.16579921 C
  atom 1.54745881 4.46591085 11.16550788 C
  atom -3.08694434 17.82347486 11.16548994 C
  atom -3.08840760 28.49969370 11.16506481 C
  atom -10.79697420 9.79907248 11.16337685 C
  atom 23.13347384 15.14727771 11.16306609 C
  atom -23.13851677 15.14991982 11.16267888 C
  atom 3.08679617 28.50211046 11.16264261 C
  atom 12.35440353 12.46572165 11.16015638 C
  atom 9.26584267 12.46273435 11.15940859 C
  atom 6.17930352 12.46511293 11.15745627 C
  atom 13.88555937 15.14737340 11.15531375 C
  atom 4.61791558 15.13488501 11.15490999 C
  atom 12.34520799 17.82704209 11.15304685 C
  atom 6.16020984 17.81659132 11.15267728 C
  atom 7.71004839 20.49166037 11.15205536 C
  atom 10.79664431 20.50583429 11.15150840 C
  atom -6.17571005 12.46836777 11.15085630 C
  atom -13.88808083 15.13697701 11.14551111 C
  atom -13.87894176 20.48159202 11.14504518 C
  atom -4.63060473 15.14220508 11.14448744 C
  atom -7.70819326 20.48990244 11.14366602 C
  atom -6.17145120 17.82227846 11.14195990 C
  atom -12.34678971 12.47162440 11.14092565 C
  atom -9.25351891 12.47299671 11.14025072 C
  atom 3.08427681 1.78769086 11.13876008 C
  atom -3.08985651 1.78563207 11.13874446 C
  atom -0.00167310 28.50912674 11.13819286 C
  atom 7.72021098 15.13801109 11.13234026 C
  atom 10.80150135 15.15175164 11.13102372 C
  atom -10.79199603 20.50193174 11.12945197 C
  atom -0.00260234 1.80990994 11.12902393 C
  atom 9.24707784 17.81658914 11.12885090 C
  atom -26.21322078 15.13775160 11.12848271 C
  atom 26.20830022 15.13698312 11.12820584 C
  atom -7.71843238 15.14157029 11.12704621 C
  atom -12.35350735 17.80320511 11.12685367 C
  atom -10.79958326 15.14921134 11.11811702 C
  atom -9.24156971 17.80789723 11.11670184 C
  # The silicon layer 3
  #
  atom 7.72918381 6.23250114 11.92074917 Si
  atom -7.73253017 6.23137642 11.91142106 Si
  atom -1.52949160 22.26416293 11.91121051 Si
  atom 3.08744518 8.91525238 11.87585830 Si
  atom 18.50583661 19.57980128 11.87229973 Si
  atom 1.56357478 22.27859898 11.87181829 Si
  atom -3.08890542 8.91150765 11.87020270 Si