#########################################################################################
#
#  William Huhn : Input file for FHI-aims spin-orbit coupling testing
#
#########################################################################################

#  Run settings
#   restart  wf
#   override_illconditioning .true.
#   basis_threshold 1E-6

#  Periodic boundary conditions settings
    k_grid 1 1 1

#  Physical model settings
   xc                 pbe
#   hse_unit           Angstrom
   charge           0.
   spin             none
#   symmetry_reduced_k_grid .false.

#  Relativistic settings
   relativistic       atomic_zora scalar
   include_spin_orbit
   empty_states 19

#  Periodic G0W0
#   qpe_calc gw

#  Hybrid Functionals Settings
#   RI_method LVL_fast 
#   use_logsbt .true.
#   default_max_l_prodbas 7

#  Relaxation settings
#   relax_geometry bfgs 1.e-2
#   relax_unit_cell full
#   sc_accuracy_forces  5E-4
#   external_pressure 6.24E-7

#  SCF convergence settings
#   occupation_type  gaussian 0.2
#   mixer            pulay
#   n_max_pulay             10
#   charge_mix_param        0.2
#   ini_linear_mixing     10
#   ini_linear_mix_param  0.05
#   preconditioner kerker 1.5
#   precondition_max_l    0
#   preconditioner turnoff charge 1e-4
#   preconditioner turnoff sum_ev 1e-1
   sc_accuracy_rho  1E-5
   sc_accuracy_etot 1E-6
   sc_accuracy_eev  1E-5
   sc_iter_limit    100
#
#  Output options (examples):
#
#  Density of states. The DOS is here evaluated
#  with an effective 144x144x144 k-point grid.
#  (12 for each k-space direction in s.c.f., and then denser
#  by another factor of 12 during post-processing). Check whether the
#  the DOS is smooth, however - fcc Al may need significantly
#  more k-points (van Hove singularities in DOS).
#
#  The dense dos_kgrid_factors below will take a noticeable amount
#  of time, but they do lead to a smooth DOS. 
#
#   output dos -20 30 1000 0.1
#   dos_kgrid_factors  12 12 12 
#
#  Strictly for regression test purposes:
    output dos -20 30 1000 0.1
    dos_kgrid_factors  3 3 3 
#
#  angular momentum channel resolved density of states
#
#   output species_proj_dos -20 30 1000 0.1
#
#  High-symmetry k-points for FCC band structure output, if requested.
# 
#   exx_band_structure_version  1
#
#  Taken from Setyawan and Curtarolo, 2010
   output band   0.000  0.000  0.000   0.500  0.000  0.500   21      G      X
   output band   0.500  0.000  0.500   0.500  0.250  0.750   21      X      W
   output band   0.500  0.250  0.750   0.375  0.375  0.750   21      W      K
   output band   0.375  0.375  0.750   0.000  0.000  0.000   21      K      G
#   output band   0.000  0.000  0.000   0.500  0.500  0.500   21      G      L
#   output band   0.500  0.500  0.500   0.625  0.250  0.625   21      L      U
#   output band   0.625  0.250  0.625   0.500  0.250  0.750   21      U      W 
#   output band   0.500  0.250  0.750   0.500  0.500  0.500   21      W      L
#   output band   0.500  0.500  0.500   0.375  0.375  0.750   21      L      K
#   output band   0.625  0.250  0.625   0.500  0.000  0.500   21      U      X
 
################################################################################
#
#  FHI-aims code project
#  VB, Fritz-Haber Institut, 2009
#
#  Suggested "light" defaults for Ga atom (to be pasted into control.in file)
#  Be sure to double-check any results obtained with these settings for post-processing,
#  e.g., with the "tight" defaults and larger basis sets.
#
################################################################################
  species        Ga
#     global species definitions
    nucleus             31
    mass                69.723
#
    l_hartree           4
#
    cut_pot             3.5          1.5  1.0
    basis_dep_cutoff    1e-4
#
    radial_base         54 5.0
    radial_multiplier   1
    angular_grids       specified
      division   0.5103   50
      division   0.8880  110
      division   1.2009  194
      division   1.5000  302
#      division   1.7093  434
#      division   1.8791  590
#      division   1.9525  770
#      division   2.3801 1202
#      outer_grid  1202
      outer_grid  302
################################################################################
#
#  Definition of "minimal" basis
#
################################################################################
#     valence basis states
    valence      4  s   2.
    valence      4  p   1.
    valence      3  d  10.
#     ion occupancy
    ion_occ      4  s   1.
    ion_occ      3  p   6.
    ion_occ      3  d  10.
################################################################################
#
#  Suggested additional basis functions. For production calculations, 
#  uncomment them one after another (the most important basis functions are
#  listed first).
#
#  Constructed for dimers: 1.85 A, 2.10 A, 2.45 A, 3.00 A, 4.00 A
#
################################################################################
#  "First tier" - improvements: -222.33 meV to -26.19 meV 
     hydro 2 p 1.2
     hydro 3 d 3.8
#     hydro 4 f 6.8
     ionic 4 s auto
#  "Second tier" - improvements: -11.68 meV to -1.61 meV
#     hydro 5 g 10
#     hydro 4 p 3.6
#     hydro 4 f 13.2
#     hydro 6 h 14.4
#     hydro 4 d 5.2
#     hydro 1 s 0.45
#  "Third tier" - improvements: -0.64 meV to -0.15 meV
#     hydro 3 p 3.4
#     hydro 3 s 2.2
#     hydro 5 g 14
#     hydro 4 f 6.2
#     hydro 5 d 7.2
#  "Fourth tier"  -improvements: -0.12 meV and below
#     hydro 3 s 3.8
#     hydro 5 f 27.2
#     hydro 6 h 16
#     hydro 5 g 9.2
#     hydro 4 d 8.6
#     hydro 2 p 3.6  

################################################################################
#
#  FHI-aims code project
#  VB, Fritz-Haber Institut, 2009
#
#  Suggested "light" defaults for As atom (to be pasted into control.in file)
#  Be sure to double-check any results obtained with these settings for post-processing,
#  e.g., with the "tight" defaults and larger basis sets.
#
################################################################################
  species        As
#
    nucleus             33
    mass                74.92160
#
    l_hartree           4
#
    cut_pot             3.5          1.5  1.0
    basis_dep_cutoff    1e-4
#
    radial_base         55 5.0
    radial_multiplier   1
    angular_grids       specified
      division   0.4982   50
      division   0.9113  110
      division   1.1593  194
      division   1.4959  302
#      division   1.6697  434
#      division   1.8319  590
#      division   1.9752  770
#      division   2.0131  974
#      division   2.4015 1202
#      outer_grid  1202
      outer_grid  302
################################################################################
#
#  Definition of "minimal" basis
#
################################################################################
#     valence basis states
    valence      4  s   2.
    valence      4  p   3.
    valence      3  d  10.
#     ion occupancy
    ion_occ      4  s   1.
    ion_occ      4  p   2.
    ion_occ      3  d  10.
################################################################################
#
#  Suggested additional basis functions. For production calculations, 
#  uncomment them one after another (the most important basis functions are
#  listed first).
#
#  Constructed for dimers: 1.75 A, 2.10 A, 2.50 A, 3.00 A, 4.00 A
#
################################################################################
#  "First tier" - improvements: -385.12 meV to -54.94 meV 
     hydro 3 d 4
     hydro 2 p 1.5
#     hydro 4 f 6.8
     ionic 4 s auto
#  "Second tier" - improvements: -22.14 meV to -3.21 meV
#     hydro 5 g 10
#     hydro 6 h 13.6
#     hydro 4 p 4.3
#     hydro 4 f 15.6
#     hydro 4 d 5.4
#     hydro 1 s 0.6
#  "Third tier" - improvements: -0.57 meV to -0.13 meV
#     hydro 5 g 16.4
#     hydro 4 f 7.4
#     hydro 5 d 7.4
#     ionic 4 p auto
#     hydro 3 s 2.6     
#  "Fourth tier" - improvements: -0.30 meV and below
#     hydro 3 p 3
#     hydro 6 h 18.4
#     hydro 5 d 11.2
#     hydro 5 f 15.2
#     hydro 5 g 13.6
#     hydro 5 s 6.2   
