# Generated from the NaCl.cF8 prototype (RS) using a = 5.1913 A
lattice_vector   0.000000   2.595650   2.595650
lattice_vector   2.595650   0.000000   2.595650
lattice_vector   2.595650   2.595650   0.000000
atom_frac        0.000000   0.000000   0.000000 Mg
atom_frac        0.500000   0.500000   0.500000 S
