lattice_vector   0.00000000   2.82660000   2.82660000
lattice_vector   2.82660000   0.00000000   2.82660000
lattice_vector   2.82660000   2.82660000   0.00000000
atom_frac        0.00000000   0.00000000   0.00000000 Ga
    constrain_relaxation .true.
atom_frac        0.25000000   0.25000000   0.25000000 As
