# Geometry for ScN crystal
#
# Sodium chloride structure
#
# lattice constant: 8.5 bohr = 4.4980 angstrom
#
atom  0.0000 0.0000 0.0000       Sc
initial_moment 0.0
atom  2.2490 0.0000 0.0000       N
initial_moment 0.0

lattice_vector 0.0000 2.2490 2.2490
lattice_vector 2.2490 0.0000 2.2490
lattice_vector 2.2490 2.2490 0.0000
