#************************************************************************************
#*                   Generated by cif2cell 1.2.2 2017-12-08 11:17                   *
#*  T. Bjorkman, Comp. Phys. Commun. 182, 1183-1186 (2011). Please cite generously. *
#*                                                                                  *
#*                                         ()                                       *
#*             Failed to get author information, No journal information             *
#************************************************************************************

lattice_vector    6.000000000000000   0.000000000000000   0.000000000000000 
lattice_vector    0.000000000000000   6.000000000000000   0.000000000000000 
lattice_vector    3.000000000000000   3.000000000000000   3.750000000000000 
atom_frac    0.750000000000000   0.750000000000000   0.500000000000000  Pb
atom_frac    0.250000000000000   0.250000000000000   0.500000000000000  Pb
atom_frac    0.122000000000000   0.622000000000000   0.000000000000000  S
atom_frac    0.878000000000000   0.378000000000000   0.000000000000000  S
atom_frac    0.622000000000000   0.878000000000000   0.000000000000000  S
atom_frac    0.378000000000000   0.122000000000000   0.000000000000000  S
