lattice_vector 0.00 2.74 2.74
lattice_vector 2.74 0.00 2.74
lattice_vector 2.74 2.74 0.00
atom_frac  0.00 0.00 0.00 Si
  constrain_relaxation .true.
atom_frac 0.251 0.25 0.25 Si
