#
#  fcc Al
#
  atom 0. 0. 0. Al
# 
# unit cell
#
lattice_vector  2.02 2.01 0.0
  constrain_relaxation z
lattice_vector  0.0  2.01 2.01
  constrain_relaxation x
lattice_vector  2.01 0.0  2.01
  constrain_relaxation y
