lattice_vector 2.7559999999999998 0.0000000000000000 0.0000000000000000 
lattice_vector 0.0000000000000000 3.8975725799999998 0.0000000000000000 
lattice_vector 0.0000000000000000 0.0000000000000000 20.0000000000000000 
atom 0.0000000000000000 0.0000000000000000 0.0000000000000000 Fe
atom 1.3779999999999999 1.9487862899999999 0.0000000000000000 Fe

