lattice_vector      5.55589295     -3.20705725      0.00074831
lattice_vector     -0.00143116      6.41472693     -0.00123802
lattice_vector      0.00067796      0.00445020     15.85229468
atom_frac       0.90376258      0.66663615      0.24924925 Ba
atom_frac       0.33328522      0.23701913      0.58259171 Ba
atom_frac       0.76283520      0.09618494      0.91592761 Ba
atom_frac       0.33332422      0.37500371      0.08257678 Sn
atom_frac       0.62491475      0.95824559      0.41590017 Sn
atom_frac       0.04167268      0.66658022      0.74925768 Sn
atom_frac       0.26402460      0.24074146      0.33784400 Cu
atom_frac       0.75915576      0.02312353      0.67120545 Cu
atom_frac       0.97675871      0.73593338      0.00451403 Cu
atom_frac       0.68988731      0.09246355      0.16062226 Cu
atom_frac       0.90748188      0.59732102      0.49391287 Cu
atom_frac       0.40251333      0.31001403      0.82729978 Cu
atom_frac       0.38646569      0.17256644      0.20152473 S
atom_frac       0.82735362      0.21378407      0.53487569 S
atom_frac       0.78612073      0.61347208      0.86820055 S
atom_frac       0.88052303      0.16069702      0.29694272 S
atom_frac       0.83930010      0.71975721      0.63028626 S
atom_frac       0.28020229      0.11946304      0.96362128 S
atom_frac       0.98749472      0.43023887      0.08208826 S
atom_frac       0.56970116      0.55717062      0.41542255 S
atom_frac       0.44276014      0.01246218      0.74877132 S
atom_frac       0.67925511      0.77609363      0.08308062 S
atom_frac       0.22390027      0.90306958      0.41639505 S
atom_frac       0.09683731      0.32070807      0.74974625 S
