lattice_vector  1.55246281  -2.68894446  0.0
lattice_vector  1.55247732  2.68896959  0.0
lattice_vector  0.0  0.0  100.0
constrain_relaxation .true.

atom  1.54966050443  -0.90091662013  12.414528  Si
atom  -0.00280113415129  -0.00460072058252  12.070601  C
atom  1.54965910612  -0.901317973867  14.418312  C
atom  -0.00280298277447  -0.00503947771525  14.970283  Si
atom  1.54965839159  -0.901464038018  17.499307  Si
constrain_relaxation .true.
atom  -0.00280332464537  -0.00516085723812  16.886178  C
constrain_relaxation .true.
atom  1.54965544138  -0.90165624469  19.403052  C
constrain_relaxation .true.
atom  -0.00280666305738  -0.00538374491293  20.011432  Si
constrain_relaxation .true.
atom  -0.00280317003884  -0.00539823836303  21.511007  H
constrain_relaxation .true.
