#   Volker Blum, FHI 2008 : Input file for FHI-aims
#
#  Input file control.in : All computational details for structure geometry.in
#
#  WARNING: Basis used here is spd only - do not use for production!
#           Angular grids reduced.
#

  xc               pbe
  relativistic     atomic_zora scalar 1e-9
#
  KS_method        serial
    empty_states     8
    basis_threshold  0.e-5
#
  mixer            pulay
    ini_linear_mixing 2
    charge_mix_param  0.2
  sc_accuracy_rho  1E-5
  sc_accuracy_eev  1E-3
  sc_accuracy_etot 1E-6
  sc_iter_limit    100 
#
  relax_geometry bfgs 5.e-3
  max_atomic_move 0.4
#
  k_grid 3 1 1
#
  hartree_convergence_parameter 5.0

################################################################################
#
#  FHI-aims code project
#  VB, Fritz-Haber Institut, 2007
#
#  Suggested "safe" defaults for Au atom (to be pasted into control.in file)
#  All values have been tested for a relativistic, non-spinpolarized Au2
#  molecule using the PW-LDA functional. Validity for PBE is expected.
#
################################################################################
  species        Au
#     global species definitions
    nucleus             79
    l_hartree           6
#
    cut_pot             4.0  1.5  1.0
    cut_free_atom       finite 6.0
#
    logarithmic         0.00010000 100.00  1.0123
    radial_base         73 7.0
    radial_multiplier   2
    angular_grids specified
      division   0.0932  110
      division   0.9815  194
      division   1.1379  302
      division   1.2703  434
#      division   1.3926  590
#      division   6.4483  974
#      outer_grid 974
      outer_grid 434
################################################################################
#
#  Definition of "minimal" basis
#
################################################################################
#     valence basis states
    valence      6  s   1.
    valence      5  p   6.
    valence      5  d  10.
    valence      4  f  14.
#     ion occupancy
    ion_occ     6  s   0.
    ion_occ     5  p   6.
    ion_occ     5  d   9.
    ion_occ     4  f   14.
################################################################################
#
#  Suggested additional basis functions. For production calculations, 
#  uncomment them one after another (the most important basis functions are
#  listed first).
#
#  Comments:
#  Tier 1 : Unlike Ir, Pt, Ag, tier 1 contains a 6 h function here. 
#  Tier 2 : a second f function (hydro 4 f 5.2) was moved down from tier 2
#           into tier 3.
#  Tier 3 : as is; two d functions.
#
################################################################################
#  "First tier" - max. impr. -161.60  meV, min. impr. -4.53 meV
     ionic 6 p auto
#     hydro 4 f 7.4
     ionic 6 s auto
#     hydro 5 g 10
#     hydro 6 h 12.8
     hydro 3 d 2.5
#  "Second tier" - max. impr. -2.46  meV, min. impr. -0.28 meV
#     hydro 5 f 14.8
#     hydro 4 d 3.9
#     hydro 3 p 3.3
#     hydro 1 s 0.45
#     hydro 5 g 16.4
#     hydro 6 h 13.6
#  "Third tier" - max. impr. -0.49  meV, min. impr. -0.09 meV
#     hydro 4 f 5.2
#     hydro 4 d 5
#     hydro 5 g 8
#     hydro 5 p 8.2
#     hydro 6 d 12.4
#     hydro 6 s 14.8
#  Further basis functions: -0.08 meV and below
#     hydro 5 f 18.8
#     hydro 5 g 20
#    hydro 5 g 15.2
