lattice_vector 8.9949999999999992 0.0000000000000000 0.0000000000000000 
lattice_vector 0.0000000000000000 8.9949999999999992 0.0000000000000000 
lattice_vector 0.0000000000000000 0.0000000000000000 12.6850000000000005 
atom 0.0295778859074399 0.0552569070203332 -0.0625173960511398 Pb
atom 4.5804545073457694 4.6314162964986823 6.2935034335366566 Pb
atom -0.0205711739313588 0.2025025316867040 6.3189296327198416 Pb
atom 4.4360197151315868 4.5935135672713576 -0.0684997517862206 Pb
atom 8.4833775134205887 0.6009989241009133 3.1938961134301844 I
atom 3.9637424520910964 4.8684182754874206 9.5166862285615803 I
atom 0.5994615807894790 8.8163200775324864 9.5292106271258827 I
atom 5.0448018556184877 4.1850271585161938 3.1883381432499549 I
atom 2.0495780254333367 6.6076575881474167 0.6698701522707876 I
atom 6.8645919845627121 2.4231687575118164 12.2368096755927098 I
atom 2.4297937314418228 2.1323745257654254 12.9348694875753853 I
atom 6.8296577501526254 6.8679684453527399 6.6699866198929438 I
atom 6.6554654001282429 6.8966449830770236 0.0851237279466407 I
atom 2.1435214961025220 2.5459656186609769 6.2865053892386644 I
atom 2.4163974919505171 7.0539695754659304 6.0462256741770952 I
atom 6.7229810958296694 2.3720605032411939 7.0971881949022446 I
atom 4.3487904112261226 8.8538502569266768 3.3950520603307970 C
atom 9.0864022038263563 4.9355650157151896 3.6712629611452248 C
atom 4.7549532629197540 8.7962037146076320 9.8837561051497449 C
atom -0.1007882706171240 4.4946729585308800 9.8101497909007538 C
atom 4.9524439387958230 0.3738451497237437 2.1309162542287217 N
atom 8.6608626738354371 4.2540063368706154 2.4113743697885628 N
atom 4.1600025335183473 0.2548787247865739 8.5881080494537247 N
atom 0.4275324416752561 5.0024951517744878 8.5073831332004630 N
atom 8.0060681748685383 3.8880246090427972 9.6130724724391428 H
atom 8.7056173357236233 5.5602866727386857 7.9952954098514786 H
atom 8.5747689694974714 4.4571573891809884 4.5121886411341219 H
atom 7.6317905341422820 4.3343510498940834 2.2844003789502052 H
atom 8.8078260557032024 5.9920633481317385 3.6064173911455017 H
atom 4.0112792786647953 8.1995736627526377 10.4204169447328034 H
atom 5.6409230953396792 8.1927581869910799 9.6659926005490355 H
atom 3.9048771604951096 -0.5399512151132284 7.9681765711390291 H
atom 4.2557358905755995 0.9117814189276038 1.5688704833928513 H
atom 5.7595989294582255 0.9925861561150281 2.3229501838178934 H
atom 3.9931026038323845 0.7099406703158947 3.9847683244521610 H
atom 3.5147305303603469 8.1945700831342432 3.1376458425083418 H
atom 5.1135078944774373 8.2993308802193457 3.9484297978331080 H
atom 0.6743834066679482 3.8881342601753830 10.2890306237939697 H
atom 0.7300617442421848 4.2254648804477029 7.8837538922823196 H
atom 1.2610278223258042 5.6007862084956477 8.6463961870498398 H
atom 8.6392518725460921 5.3522432639981030 10.4408729886854683 H
atom 1.1754969963855966 4.8361128338105352 3.7738538118518186 H
atom 8.8751069206575419 3.2371319272943455 2.4420906506368456 H
atom 0.1407609821952349 4.6728941215603923 1.5897923259192477 H
atom 3.2858464058276247 0.7873840180649887 8.7393634065398924 H
atom 4.8276962593211028 0.8645647021145542 8.0656670945724454 H
atom 5.0341917606865634 0.6857986785928263 10.4656749434931839 H
atom 5.3129940788472991 8.5941813088431260 1.5312924366481198 H
