lattice_vector 0.0000000000000000 2.7149999999999999 2.7149999999999999
lattice_vector 2.7149999999999999 0.0000000000000000 2.7149999999999999
lattice_vector 2.7149999999999999 2.7149999999999999 0.0000000000000000
atom 0.0000000000000000 0.0000000000000000 0.0000000000000000 Si
    constrain_relaxation .true.
atom 1.3574999999999999 1.3574999999999999 1.3574999999999999 Si
