#  Volker Blum, FHI 2004 : Input file for LocalOrb code project
#
#  Input file control.in : All computational details for structure geometry.in
#
#  * First, general computational parameters:
#         xc           - specifies type of exchange-correlation potential
#         relativistic - specifies the type of kinetic energy expression
#         empty_states - specifies the number of empty states per atom to be included
#         KS_method    - specifies the treatment of the Kohn-Sham equations (e.g., full diagonalisation by Lapack)
#         charge_mix_param - mixing parameter for linear charge-density mixing
#         sc_accuracy_rho - convergence criterion for the average charge
#                        density distance
#         sc_accuracy_eev - convergence criterion for the sum of eigenvalues
#                        between different sc iterations
#         sc_accuracy_etot - convergence criterion for the total energy
#                        between different sc iterations
#         force_potential - Force the use of a debug-type potential,
#                           e.g. superposition of free atoms
#
  xc             pw-lda
  total_energy_method rpa 
    use_logsbt .true.
    frequency_points  40
  spin           none
  relativistic   none
  calculate_atom_bsse .true.
  empty_states   300
#  excited_state  gw
#  multiplicity    3
#  KS_method      lapack
  basis_threshold 1.e-6
  occupation_type gaussian 0.05 
  occupation_acc 1e-08
  mixer          pulay
  ini_linear_mixing 0
  charge_mix_param  0.2
  sc_accuracy_rho  1E-6
  sc_accuracy_eev  1E-4
  sc_accuracy_etot 1E-6
  sc_iter_limit 30
  prodbas_threshold 1.e-4
#
#  * Next, specify output options:
#    - basis
#    - matrices
#    - grids
#    - v_eff
#    - v_hartree (partitioned Hartree potentials)
#
#  output       basis
#  output       matrices
#  output       grids
#  output       v_eff
#  output       v_hartree
#  output       density
#
#  * Finally, all details relating to the chemical elements ("species"):
################################################################################
#
#  FHI-aims code project
#  VB, Fritz-Haber Institut, 2007
#
#  Suggested "safe" defaults for C atom (to be pasted into control.in file)
#
################################################################################
  species        C
#     global species definitions
    nucleus             6
    mass                12.0107
#
    l_hartree           6
#
    cut_pot             4.0  2.0  1.0
#    basis_dep_cutoff    1e-4
#
    radial_base         34 7.0
    radial_multiplier   2
    angular_grids specified
      division   0.4031  110
      division   0.5191  194
      division   0.6263  302
      division   0.8150  434
#      division   0.8501  590
#     division   0.9238  770
#     division   1.6076  974
#     outer_grid  974
      outer_grid  434
################################################################################
#
#  Definition of "minimal" basis
#
################################################################################
#     valence basis states
    valence      2  s   2.
    valence      2  p   2.
#     ion occupancy
    ion_occ      2  s   1.
    ion_occ      2  p   1.
################################################################################
#
#  Suggested additional basis functions. For production calculations, 
#  uncomment them one after another (the most important basis functions are
#  listed first).
#
#  Constructed for dimers: 1.0 A, 1.25 A, 1.5 A, 2.0 A, 3.0 A
#
################################################################################
#  "First tier" - improvements: -1214.57 meV to -155.61 meV
     hydro 2 p 1.7
     hydro 3 d 6
     hydro 2 s 4.9
#  "Second tier" - improvements: -67.75 meV to -5.23 meV
     hydro 4 f 9.8
     hydro 3 p 5.2
     hydro 3 s 4.3
     hydro 5 g 14.4
     hydro 3 d 6.2
#  "Third tier" - improvements: -2.43 meV to -0.60 meV
     hydro 2 p 5.6
     hydro 2 s 1.4
     hydro 3 d 4.9
     hydro 4 f 11.2
#  "Fourth tier" - improvements: -0.39 meV to -0.18 meV
#     hydro 2 p 2.1
#     hydro 5 g 16.4
#     hydro 4 d 13.2
#     hydro 3 s 13.6
#     hydro 4 f 17.6
#  Further basis functions - improvements: -0.08 meV and below
#     hydro 3 s 2
#     hydro 3 p 6
#     hydro 4 d 20
################################################################################
#
#  FHI-aims code project
#  VB, Fritz-Haber Institut, 2007
#
#  Suggested "safe" defaults for O atom (to be pasted into control.in file)
#
################################################################################
  species        O
#     global species definitions
    nucleus             8
    mass                15.9994
#
    l_hartree           6
#
    cut_pot             4.0  2.0  1.0
#    basis_dep_cutoff    1e-4
#
    radial_base         36 7.0
    radial_multiplier   2
     angular_grids specified
      division   0.4087  110
      division   0.5181  194
      division   0.6184  302
      division   0.7315  434
#      division   0.7934  590
#      division   0.9656  770
#      division   1.4041  974
#      outer_grid 974
      outer_grid  434
################################################################################
#
#  Definition of "minimal" basis
#
################################################################################
#     valence basis states
    valence      2  s   2.
    valence      2  p   4.
#     ion occupancy
    ion_occ      2  s   1.
    ion_occ      2  p   3.
################################################################################
#
#  Suggested additional basis functions. For production calculations, 
#  uncomment them one after another (the most important basis functions are
#  listed first).
#
#  Constructed for dimers: 1.0 A, 1.208 A, 1.5 A, 2.0 A, 3.0 A
#
################################################################################
#  "First tier" - improvements: -699.05 meV to -159.38 meV
     hydro 2 p 1.8
     hydro 3 d 7.6
     hydro 3 s 6.4
#  "Second tier" - improvements: -49.91 meV to -5.39 meV
     hydro 4 f 11.6
     hydro 3 p 6.2
     hydro 3 d 5.6
     hydro 5 g 17.6
     hydro 1 s 0.75
#  "Third tier" - improvements: -2.83 meV to -0.50 meV
     ionic 2 p auto
     hydro 4 f 10.8
     hydro 4 d 4.7
     hydro 2 s 6.8
#  "Fourth tier" - improvements: -0.40 meV to -0.12 meV
#     hydro 3 p 5
#     hydro 3 s 3.3
#     hydro 5 g 15.6
#     hydro 4 f 17.6
#     hydro 4 d 14
# Further basis functions - -0.08 meV and below
#     hydro 3 s 2.1
#     hydro 4 d 11.6
#     hydro 3 p 16
#     hydro 2 s 17.2
