lattice_vector 0.0 2.708 2.708
lattice_vector 2.708 0.0 2.708
lattice_vector 2.708 2.708 0.0

atom 0.0 0.0 0.0 Si
atom 1.354 1.354 1.354 Si
