lattice_vector    1.993530    1.993530    0.000000      
lattice_vector    0.000000    1.993530    1.993530      
lattice_vector    3.987060    0.000000    3.987060      
 atom               0.00000000        0.00000000        0.00000000  Al
   velocity          -1.34456495          4.58700561         -2.21029428
 atom               1.99353000        1.99353000        3.98706000  Al
   velocity           1.34456495         -4.58700561          2.21029428

