#  Volker Blum, FHI 2007 : Input file for FHI-aims code project
#
#  Input file control.in : All computational details for structure geometry.in
#
#  General computational parameters:
#
  xc             pbe
  relativistic   none
#
  occupation_type gaussian 0.01 
  mixer          pulay
    n_max_pulay       10
    charge_mix_param  0.6
  sc_accuracy_rho  1E-6
  sc_accuracy_eev  1E-4
  sc_accuracy_etot 1E-6
  sc_iter_limit 1
#
  KS_method      serial
    empty_states   3
#
  compute_forces .true.

  postprocess_anyway 1

################################################################################
#
#  FHI-aims code project
#  VB, Fritz-Haber Institut, 2007
#
#  Suggested "safe" defaults for H atom (to be pasted into control.in file)
#  Basis constructed for a non-relativistic H2 molecule using the
#  PW-LDA functional.  
#
#  Constructed for dimers: 0.5 A, 0.7 A, 1.0 A, 1.5 A, 2.5 A
#
################################################################################
  species        H
#     global species definitions
    nucleus             1
    l_hartree           4
    cut_pot             3.5  2.0  1.0
    logarithmic         0.00010000 100.00  1.0123
    radial_base         24 7.0
    radial_multiplier   2
    angular_grids       specified
      division   0.2783  110
      division   0.3822  194
      division   0.5626  302
#      division   0.5922  434
#      division   0.6227  590
#      division   0.7206  770
#      outer_grid  770
      outer_grid  302
################################################################################
#
#  Definition of "minimal" basis
#
################################################################################
#     valence basis states
    valence      1  s   1.
#     ion occupancy
    ion_occ      1  s   0.5
################################################################################
#
#  Suggested additional basis functions. For production calculations, 
#  uncomment them one after another (the most important basis functions are
#  listed first).
#
################################################################################
#  "First tier" - improvements: -1014.90 meV to -62.69 meV
     hydro 2 s 2.1
     hydro 2 p 3.5
#  "Second tier" - improvements: -12.89 meV to -1.83 meV
#     hydro 1 s 0.85
#     hydro 2 p 3.7
#     hydro 2 s 1.2
#     hydro 3 d 7
#  "Third tier" - improvements: -0.25 meV to -0.12 meV
#     hydro 4 f 11.2
#     hydro 3 p 4.8
#     hydro 4 d 9
#     hydro 3 s 3.2
