lattice_vector           2.381296500        0.0000000          0.0000000
lattice_vector           0.00000000         40.0000000          0.0000000
lattice_vector           0.0000000          0.0000000          40.0000000
            atom         0.52917700        20.000000         20.000000  H
            atom        -0.52917700        20.00000000       20.000000  H

