atom    0.0000000    5.00000000    5.00000000    Ti
atom    1.5000000    5.00000000    5.00000000    Cl
#
#
lattice_vector  14.00000000    0.00000000    0.00000000
lattice_vector  0.00000000    14.00000000    0.00000000
lattice_vector  0.00000000    0.00000000    14.00000000
