lattice_vector 5.6609999999999996 0.0000000000000000 0.0000000000000000
lattice_vector 0.0000000000000000 5.6609999999999996 0.0000000000000000
lattice_vector 0.0000000000000000 0.0000000000000000 4.7119999999999997
atom 0.0000000000000000 2.8304999999999998 1.5690960000000000 C
atom 2.8304999999999998 0.0000000000000000 3.1429040000000001 C
atom 0.0000000000000000 2.8304999999999998 2.8121215999999998 O
atom 2.8304999999999998 0.0000000000000000 1.8998784000000000 O
atom 0.8146178999999999 3.6451178999999998 0.8632384000000000 N
atom 4.8463820999999996 2.0158820999999998 0.8632384000000000 N
atom 3.6451178999999998 4.8463820999999996 3.8487615999999996 N
atom 2.0158820999999998 0.8146178999999995 3.8487615999999996 N
atom 1.4277041999999998 4.2582041999999998 1.3377367999999998 H
atom 4.2332957999999996 1.4027958000000000 1.3377367999999998 H
atom 4.2582041999999998 4.2332957999999996 3.3742631999999997 H
atom 1.4027958000000000 1.4277041999999998 3.3742631999999997 H
atom 0.7727265000000000 3.6032264999999994 4.5819488000000002 H
atom 4.8882734999999995 2.0577734999999997 4.5819488000000002 H
atom 3.6032264999999994 4.8882734999999995 0.1300511999999998 H
atom 2.0577734999999997 0.7727264999999991 0.1300511999999998 H
