# Diamond structure with lattice constant 5.416 AA.
lattice_vector    0.0    2.708   2.708
lattice_vector    2.708   0.0    2.708
lattice_vector    2.708   2.708   0.0 

atom_frac          0.0    0.0    0.0   Si
atom_frac          0.25   0.25   0.25  Si
