# FCC Al
lattice_vector  2.02  2.01  0.00
lattice_vector  0.00  2.01  2.01
lattice_vector  2.01  0.00  2.01

atom  0.0  0.0  0.0  Al
