lattice_vector 1.7400000000000000 0 0.000000000000000  0.0000000000000000
lattice_vector 0.0000000000000000 40.0000000000000000 0.000000000000000
lattice_vector 0.0000000000000000 0.00000000000000000  40.0000000000000000
atom    -0.3700000   10.0    10.00000000    H 
atom     0.370000    10.0    10.00000000    H 
