 lattice_vector     4.00    4.00    0.00
 lattice_vector     0.00    4.00    4.00
 lattice_vector     4.00    0.00    4.00
 
 atom_frac          0.0    0.0    0.0   Ar
 atom_frac          0.5    0.5    0.5   Ar

