# 
# This is the geometry file that corresponds to the current relaxation step.
# If you do not want this file to be written, set the "write_restart_geometry" flag to .false.
#  aims_uuid : 1CD3FBC0-EB25-47C3-A1DB-FCBED1005AC7                                
# 
lattice_vector     -0.00976328      2.77246925      2.77250470
lattice_vector      2.77226347     -0.00968175      2.77222890
lattice_vector      2.77240833      2.77233829     -0.00972084
atom_frac      -0.00647217     -0.00673740     -0.00659623 Ga
atom_frac       0.25782556      0.25809076      0.25794962 As
