# Geometry for fcc Au
#
lattice_vector  15.0   0.0   0.0
lattice_vector   0.0  12.0   0.0
lattice_vector   0.0   0.0  12.0
#
atom  0.0  0.0  0.0  Au
atom  3.0  0.0  0.0  Au
