# 
# This is the geometry file that corresponds to the current relaxation step.
# If you do not want this file to be written, set the "write_restart_geometry" flag to .false.
#  aims_uuid : C2A3FAFA-2B41-4D09-A6CA-1C040936CEB6                                
# 
lattice_vector      1.99283074      1.99283105     -0.00261223
lattice_vector     -0.00261192      1.99283106      1.99283106
lattice_vector      1.99283074     -0.00261223      1.99283105
atom       0.00000000      0.00000000      0.00000000 Al
# 
# What follows is the current estimated Hessian matrix constructed by the BFGS algorithm.
# This is NOT the true Hessian matrix of the system.
# If you do not want this information here, switch it off using the "hessian_to_restart_geometry" keyword.
# 
trust_radius             0.2000000030
hessian_block                1       1           2.000000           0.000000          -0.000000           0.000000           2.000000          -0.000000          -0.000000          -0.000000           2.000000
hessian_block_lv             1       1          22.711852          -2.288403           2.092725          -2.288403          22.711341           2.092978           2.092725           2.092978          23.180963
hessian_block_lv             1       2           2.092469           2.092722          -1.818785          -2.288408          -2.288663           2.092984          -2.288408          -2.288663           2.092984
hessian_block_lv             1       3          -2.288148          -2.288403           2.092725           2.092725           2.092977          -1.819037          -2.288404          -2.288659           2.092977
hessian_block_lv             2       2          23.181467           2.092728           2.092728           2.092728          22.711332          -2.288668           2.092728          -2.288668          22.711332
hessian_block_lv             2       3           2.092470          -2.288408          -2.288408          -1.818785           2.092983           2.092983           2.092722          -2.288664          -2.288664
hessian_block_lv             3       3          22.711852           2.092725          -2.288404           2.092725          23.180962           2.092977          -2.288404           2.092977          22.711341
