# Half-passivated Si(111) with charged sheet

# Dipole correction position
  set_vacuum_level         0.000000

lattice_vector      3.86910000      0.00000000      0.00000000
lattice_vector     -1.93455000      3.35073900      0.00000000
lattice_vector      0.00000000      0.00000000     90.00000000

atom_frac    0.6666666667    0.3333333333    0.7140310900    Si
atom_frac    0.3333333333    0.6666666667    0.7068521400    Si
atom_frac    0.3333333333    0.6666666667    0.6802787000    Si
atom_frac    0.0000000000    0.0000000000    0.6715827900    Si
atom_frac    0.0000000000    0.0000000000    0.6451056000    Si
atom_frac    0.6666666667    0.3333333333    0.6362843200    Si
atom_frac    0.6666666667    0.3333333333    0.6098886200    Si
atom_frac    0.3333333333    0.6666666667    0.6010702700    Si
atom_frac    0.3333333333    0.6666666667    0.5746909200    Si
atom_frac    0.0000000000    0.0000000000    0.5658653900    Si
atom_frac    0.0000000000    0.0000000000    0.5394900000    Sibulk
atom_frac    0.6666666667    0.3333333333    0.5307100000    Sibulk
atom_frac    0.6666666667    0.3333333333    0.5043900000    Sibulk
atom_frac    0.3333333333    0.6666666667    0.4956100000    Sibulk
atom_frac    0.3333333333    0.6666666667    0.4692900000    Sibulk
atom_frac    0.0000000000    0.0000000000    0.4605100000    Sibulk
atom_frac    0.0000000000    0.0000000000    0.4341900000    Sibulk
atom_frac    0.6666666667    0.3333333333    0.4254100000    Sibulk
atom_frac    0.6666666667    0.3333333333    0.3990800000    Sibulk
atom_frac    0.3333333333    0.6666666667    0.3903100000    Sibulk
atom_frac    0.3333333333    0.6666666667    0.3637886200    Si
atom_frac    0.0000000000    0.0000000000    0.3548407800    Si
atom_frac    0.0000000000    0.0000000000    0.3283454400    Si
atom_frac    0.6666666667    0.3333333333    0.3193920100    Si
atom_frac    0.6666666667    0.3333333333    0.2929321900    Si
atom_frac    0.3333333333    0.6666666667    0.2842919700    Si
atom_frac    0.3333333333    0.6666666667    0.2675173800    H
# Charged "sheet"
atom_frac    0.0000000000    0.0000000000    0.1000000000    CP
atom_frac    0.5000000000    0.0000000000    0.1000000000    CP
atom_frac    0.0000000000    0.5000000000    0.1000000000    CP
atom_frac    0.5000000000    0.5000000000    0.1000000000    CP
