#  Volker Blum, FHI 2008 : Input file for FHI-aims
#
#  Input file control.in : All computational details 
#
#  * First, general computational parameters
#
  xc                pw-lda
  relativistic      none
  KS_method         serial
    empty_states      5
    basis_threshold   0.e-6
  occupation_type   gaussian 0.01 
  force_potential  superpos_rho

  postprocess_anyway 1
################################################################################
#
#  FHI-aims code project
#  VB, Fritz-Haber Institut, 2007
#
#  Suggested "safe" defaults for N atom (to be pasted into control.in file)
#  All values have been tested for a non-relativistic, non-spinpolarized O2
#  molecule using the PW-LDA functional. Validity for PBE is expected.
#
#  Constructed for dimers: 1.0 A, 1.1 A, 1.5 A, 2.0 A, 3.0 A
#
################################################################################
  species        N
#     global species definitions
    nucleus             7
    l_hartree           6
#
    cut_pot             4.0  2.0  1.0
    cut_free_atom       finite 8.0
#
    logarithmic         0.00010000 100.00  1.0123
    radial_base         35 7.0
    radial_multiplier   2
    angular_grids       specified
      division   0.3806  110
      division   0.5126  194
      division   0.5309  302
      division   0.7632  434
#      division   0.7874  770
#      division   3.0496  974
#      outer_grid  974
      outer_grid  590
################################################################################
#
#  Definition of "minimal" basis
#
################################################################################
#     valence basis states
    valence      2  s   2.
    valence      2  p   3.
#     ion occupancy
    ion_occ      2  s   1.
    ion_occ      2  p   2.
################################################################################
#
#  Suggested additional basis functions. For production calculations, 
#  uncomment them one after another (the most important basis functions are
#  listed first).
#
################################################################################
#  "First tier" - improvements: -1193.42 meV to -220.60 meV
     hydro 2 p 1.8
     hydro 3 d 6.8
     hydro 3 s 5.8
#  "Second tier" - improvements: -80.21 meV to -6.86 meV
#     hydro 4 f 10.8
#     hydro 3 p 5.8
#     hydro 1 s 0.8
#     hydro 5 g 16
#     hydro 3 d 4.9
#  "Third tier" - improvements: -4.29 meV to -0.53 meV
#     hydro 3 s 16
#     ionic 2 p 9.4486
#     hydro 3 d 6.6
#     hydro 4 f 11.6
#  "Fourth tier" - improvements: -0.75 meV to -0.25 meV
#     hydro 2 p 4.5
#     hydro 2 s 2.4
#     hydro 5 g 14.4
#     hydro 4 d 14.4
#     hydro 4 f 16.8
# Further basis functions - -0.21 meV and below
#     hydro 3 p 14.8
#     hydro 3 s 4.4
#     hydro 3 d 19.6
#     hydro 5 g 12.8
