#  Volker Blum, FHI 2008 : Input file for FHI-aims
#
  xc                pbe
  relativistic      none
  spin              collinear
    default_initial_moment 0.5
  charge 0.0
#
  KS_method         serial
    empty_states      5
#
  occupation_type   gaussian 0.15
  mixer             pulay
    ini_linear_mixing 0
    charge_mix_param  0.6
  sc_accuracy_rho  1E-6
  sc_accuracy_eev  1E-4
  sc_accuracy_etot 1E-6
  sc_iter_limit    200
#
  relax_geometry bfgs 1d-2
   # 15 is actually a little bit low; but we want to test step size reduction
  init_hess  15.
#
################################################################################
#
#  FHI-aims code project
#  VB, Fritz-Haber Institut, 2007
#
#  Suggested "safe" defaults for N atom (to be pasted into control.in file)
#  All values have been tested for a non-relativistic, non-spinpolarized O2
#  molecule using the PW-LDA functional. Validity for PBE is expected.
#
#  Constructed for dimers: 1.0 A, 1.1 A, 1.5 A, 2.0 A, 3.0 A
#
################################################################################
  species        N
#     global species definitions
    nucleus             7
    l_hartree           4
    cut_pot             4.0  2.0  1.0
    cut_free_atom       finite 8.0
    logarithmic         0.00010000 100.00  1.0123
    radial_base         35 7.0
    radial_multiplier   2
    angular_grids       specified
      division   0.3806  110
      division   0.5126  194
      division   0.5309  302
#      division   0.7632  434
#      division   0.7874  770
#      division   3.0496  974
#      outer_grid  974
      outer_grid  302
################################################################################
#
#  Definition of "minimal" basis
#
################################################################################
#     valence basis states
    valence      2  s   2.
    valence      2  p   3.
#     ion occupancy
    ion_occ      2  s   1.
    ion_occ      2  p   2.
################################################################################
#
#  Suggested additional basis functions. For production calculations, 
#  uncomment them one after another (the most important basis functions are
#  listed first).
#
################################################################################
#  "First tier" - improvements: -1193.42 meV to -220.60 meV
     hydro 2 p 1.8
     hydro 3 d 6.8
     hydro 3 s 5.8
#  "Second tier" - improvements: -80.21 meV to -6.86 meV
#     hydro 4 f 10.8
#     hydro 3 p 5.8
#     hydro 1 s 0.8
#     hydro 5 g 16
#     hydro 3 d 4.9
#  "Third tier" - improvements: -4.29 meV to -0.53 meV
#     hydro 3 s 16
#     ionic 2 p 9.4486
#     hydro 3 d 6.6
#     hydro 4 f 11.6
#  "Fourth tier" - improvements: -0.75 meV to -0.25 meV
#     hydro 2 p 4.5
#     hydro 2 s 2.4
#     hydro 5 g 14.4
#     hydro 4 d 14.4
#     hydro 4 f 16.8
# Further basis functions - -0.21 meV and below
#     hydro 3 p 14.8
#     hydro 3 s 4.4
#     hydro 3 d 19.6
#     hydro 5 g 12.8

################################################################################
#
#  FHI-aims code project
#  VB, Fritz-Haber Institut, 2007
#
#  Suggested "safe" defaults for O atom (to be pasted into control.in file)
#  All values have been tested for a non-relativistic, non-spinpolarized O2
#  molecule using the PW-LDA functional. Validity for PBE is expected.
#
#  Constructed for dimers: 1.0 A, 1.208 A, 1.5 A, 2.0 A, 3.0 A
#
################################################################################
  species        O
#     global species definitions
    nucleus             8
    l_hartree           4
    cut_pot             4.0  2.0  1.0
    cut_free_atom       finite 8.0
    logarithmic         0.00010000 100.00  1.0123
    radial_base         36 7.0
    radial_multiplier   2
     angular_grids specified
      division   0.4087  110
      division   0.5181  194
      division   0.6184  302
#      division   0.7315  434
#      division   0.7934  590
#      division   0.9656  770
#      division   1.4041  974
#      outer_grid 974
      outer_grid 302
################################################################################
#
#  Definition of "minimal" basis
#
################################################################################
#     valence basis states
    valence      2  s   2.
    valence      2  p   4.
#     ion occupancy
    ion_occ      2  s   1.
    ion_occ      2  p   3.
################################################################################
#
#  Suggested additional basis functions. For production calculations, 
#  uncomment them one after another (the most important basis functions are
#  listed first).
#
################################################################################
#  "First tier" - improvements: -699.05 meV to -159.38 meV
     hydro 2 p 1.8
     hydro 3 d 7.6
     hydro 3 s 6.4
#  "Second tier" - improvements: -49.91 meV to -5.39 meV
#     hydro 4 f 11.6
#     hydro 3 p 6.2
#     hydro 3 d 5.6
#     hydro 5 g 17.6
#     hydro 1 s 0.75
#  "Third tier" - improvements: -2.83 meV to -0.50 meV
#     ionic 2 p 9.4486
#     hydro 4 f 10.8
#     hydro 4 d 4.7
#     hydro 2 s 6.8
#  "Fourth tier" - improvements: -0.40 meV to -0.12 meV
#     hydro 3 p 5
#     hydro 3 s 3.3
#     hydro 5 g 15.6
#     hydro 4 f 17.6
#     hydro 4 d 14
# Further basis functions - -0.08 meV and below
#     hydro 3 s 2.1
#     hydro 4 d 11.6
#     hydro 3 p 16
#     hydro 2 s 17.2
