#########################################################################################
#
#  William Huhn : Input file for FHI-aims spin-orbit coupling testing
#
#########################################################################################

#  Run settings
#   restart  wf
#   override_illconditioning .true.
#   basis_threshold 1E-6

#  Periodic boundary conditions settings
    k_grid 3 3 3

#  Physical model settings
   xc                 pbe
#   hse_unit           Angstrom
   charge           0.
   spin             none
#   symmetry_reduced_k_grid .false.

#  Relativistic settings
   relativistic       atomic_zora scalar
   include_spin_orbit
#   empty_states 19

#  Periodic G0W0
#   qpe_calc gw

#  Hybrid Functionals Settings
#   RI_method LVL_fast 
#   use_logsbt .true.
#   default_max_l_prodbas 7

#  Relaxation settings
#   relax_geometry bfgs 1.e-2
#   relax_unit_cell full
#   sc_accuracy_forces  5E-4
#   external_pressure 6.24E-7

#  SCF convergence settings
#   occupation_type  gaussian 0.2
#   mixer            pulay
#   n_max_pulay             10
#   charge_mix_param        0.2
#   ini_linear_mixing     10
#   ini_linear_mix_param  0.05
#   preconditioner kerker 1.5
#   precondition_max_l    0
#   preconditioner turnoff charge 1e-4
#   preconditioner turnoff sum_ev 1e-1
#   sc_accuracy_rho  1E-5
#   sc_accuracy_etot 1E-6
#   sc_accuracy_eev  1E-5
#   sc_iter_limit    100
#
#  Output options (examples):
#
#  Density of states. The DOS is here evaluated
#  with an effective 144x144x144 k-point grid.
#  (12 for each k-space direction in s.c.f., and then denser
#  by another factor of 12 during post-processing). Check whether the
#  the DOS is smooth, however - fcc Al may need significantly
#  more k-points (van Hove singularities in DOS).
#
#  The dense dos_kgrid_factors below will take a noticeable amount
#  of time, but they do lead to a smooth DOS. 
#
#   output dos -20 30 1000 0.1
#   dos_kgrid_factors  12 12 12 
#
#  Strictly for regression test purposes:
    output dos -20 30 1000 0.1
    dos_kgrid_factors  3 3 3 
#
#  angular momentum channel resolved density of states
#
   output Mulliken
   output species_proj_dos -20 30 1000 0.1
   output atom_proj_dos    -20 30 1000 0.1
 
################################################################################
#
#  FHI-aims code project
#  VB, Fritz-Haber Institut, 2009
#
#  Suggested "light" defaults for Mg atom (to be pasted into control.in file)
#  Be sure to double-check any results obtained with these settings for post-processing,
#  e.g., with the "tight" defaults and larger basis sets.
#
################################################################################
  species        Mg
#     global species definitions
    nucleus             12
    mass                24.3050
#
    l_hartree           4
#
    cut_pot             4.0          1.5  1.0
    basis_dep_cutoff    1e-4
#
    radial_base         40 5.5
    radial_multiplier   1
    angular_grids       specified
      division   0.7029   50
      division   0.9689  110
      division   1.1879  194
      division   1.3129  302
#      division   1.4867  434
#      division   1.6018  590
#      division   1.8611  770
#      division   1.9576  974
#      division   2.2261 1202
#      outer_grid   974
      outer_grid   302
################################################################################
#
#  Definition of "minimal" basis
#
################################################################################
#     valence basis states
    valence      3  s   2.
    valence      2  p   6.
#     ion occupancy
    ion_occ      2  s   2.
    ion_occ      2  p   6.
################################################################################
#
#  Suggested additional basis functions. For production calculations, 
#  uncomment them one after another (the most important basis functions are
#  listed first).
#
#  Constructed for dimers: 2.125 A, 2.375 A, 2.875 A, 3.375 A, 4.5 A
#
################################################################################
#  "First tier" - improvements: -230.76 meV to -21.94 meV
     hydro 2 p 1.5
     ionic 3 d auto
     hydro 3 s 2.4
#  "Second tier" - improvements: -5.43 meV to -1.64 meV
#     hydro 4 f 4.3
#     hydro 2 p 3.4
#     hydro 4 s 11.2
#     hydro 3 d 6.2
#  "Third tier" - improvements: -0.92 meV to -0.22 meV
#     hydro 2 s 0.6
#     hydro 3 p 4.8
#     hydro 4 f 7.4
#     hydro 5 g 6.6
#     hydro 2 p 1.6
#     hydro 3 d 1.8
#  "Fourth tier" - improvements: -0.09 meV to -0.05 meV
#     hydro 4 p 0.45
#     hydro 5 g 10.4
#     hydro 2 s 12.4
#     hydro 4 d 1.7

################################################################################
#
#  FHI-aims code project
#  VB, Fritz-Haber Institut, 2009
#
#  Suggested "light" defaults for S atom (to be pasted into control.in file)
#  Be sure to double-check any results obtained with these settings for post-processing,
#  e.g., with the "tight" defaults and larger basis sets.
#
################################################################################
  species        S
#     global species definitions
    nucleus             16
    mass                32.065
#
    l_hartree           4
#
    cut_pot             3.5          1.5  1.0
    basis_dep_cutoff    1e-4
#
    radial_base         44 5.0
    radial_multiplier   1
    angular_grids       specified
      division   0.4665  110
      division   0.5810  194
      division   0.7139  302
#      division   0.8274  434
#      division   0.9105  590
#      division   1.0975  770
#      division   1.2028  974
#      outer_grid  974
      outer_grid  302
################################################################################
#
#  Definition of "minimal" basis
#
################################################################################
#     valence basis states
    valence      3  s   2.
    valence      3  p   4.
#     ion occupancy
    ion_occ      3  s   1.
    ion_occ      3  p   3.
################################################################################
#
#  Suggested additional basis functions. For production calculations, 
#  uncomment them one after another (the most important basis functions are
#  listed first).
#
#  Constructed for dimers: 1.6 A, 1.9 A, 2.5 A, 3.25 A, 4.0 A
#
################################################################################
#  "First tier" - improvements: -652.81 meV to -45.53 meV
     ionic 3 d auto
     hydro 2 p 1.8
#     hydro 4 f 7
     ionic 3 s auto
#  "Second tier" - improvements: -30.20 meV to -1.74 meV
#     hydro 4 d 6.2
#     hydro 5 g 10.8
#     hydro 4 p 4.9
#     hydro 5 f 10
#     hydro 1 s 0.8
#  "Third tier" - improvements: -1.04 meV to -0.20 meV
#     hydro 3 d 3.9
#     hydro 3 d 2.7
#     hydro 5 g 12
#     hydro 4 p 10.4
#     hydro 5 f 12.4
#     hydro 2 s 1.9
#  "Fourth tier" - improvements: -0.35 meV to -0.06 meV
#     hydro 4 d 10.4
#     hydro 4 p 7.2
#     hydro 4 d 10
#     hydro 5 g 19.2
#     hydro 4 s 12

