# 
# This is the geometry file that corresponds to the current relaxation step.
# If you do not want this file to be written, set the "write_restart_geometry" flag to .false.
# 
lattice_vector      3.82969033      0.00000000      0.00000000
lattice_vector      0.00000000      3.82969033      0.00000000
lattice_vector      0.00000000      0.00000000     50.00000000
atom      -1.14820386      0.00000002     -0.90017133 H
atom       1.14820386      0.00000003     -0.90017132 H
atom       0.00000000     -0.00000001      0.00890057 Si
atom       0.00000000      1.91484518      1.29596974 Si
atom       1.91484516      1.91484510      1.64343234 O
# 
# What follows is the current estimated Hessian matrix constructed by the BFGS algorithm.
# This is NOT the true Hessian matrix of the system.
# If you do not want this information here, switch it off using the "hessian_to_restart_geometry" keyword.
# 
trust_radius             0.2000000030
hessian_block                1       1          19.057659           0.000000          11.507611           0.000000           2.181489           0.000000          11.507611           0.000000          10.901683
hessian_block                1       2          -0.214439           0.000000           0.332991           0.000000          -0.004218           0.000000          -0.332991           0.000000           0.406046
hessian_block                1       3         -16.880019           0.000000         -11.788223           0.000000          -0.213994           0.000000         -10.823941          -0.000001          -9.526023
hessian_block                1       4           0.035935           0.000000          -0.051201           0.000000           0.035673           0.000000           0.010409           0.000001           0.366034
hessian_block                1       5           0.000863           0.000000          -0.001178           0.000000           0.001051           0.000000          -0.361089           0.000000          -0.147739
hessian_block                2       2          19.057659           0.000000         -11.507611           0.000000           2.181489           0.000000         -11.507611           0.000000          10.901683
hessian_block                2       3         -16.880019           0.000000          11.788223           0.000000          -0.213994           0.000000          10.823941          -0.000001          -9.526024
hessian_block                2       4           0.035935           0.000000           0.051201           0.000000           0.035673           0.000000          -0.010410           0.000001           0.366034
hessian_block                2       5           0.000863           0.000000           0.001178           0.000000           0.001051           0.000000           0.361089           0.000000          -0.147739
hessian_block                3       3          36.288493           0.000000           0.000000           0.000000           8.707165           0.000003           0.000000           0.000003          28.894283
hessian_block                3       4          -0.416307           0.000000          -0.000001           0.000000          -6.204585          -0.000004           0.000000          -0.000004          -9.768235
hessian_block                3       5          -0.112148           0.000000           0.000000           0.000000          -0.074591           0.000002           0.000000           0.000001           1.925999
hessian_block                4       4          57.755069           0.000000           0.000001           0.000000           9.497363           0.000005           0.000001           0.000005          16.321979
hessian_block                4       5         -55.410633           0.000000          -0.000001           0.000000          -1.364124          -0.000003           0.000000          -0.000002          -5.285812
hessian_block                5       5          57.521055           0.000000           0.000000           0.000000           3.436612           0.000001           0.000000           0.000001           5.655291
