#Pentacene bulk structure from Mattheus, ActaCrystC, 57, 939, 2001 for 90 K 
lattice_vector        6.2389998436         0.0000000000         0.0000000000
lattice_vector        0.7431533316         7.5997514113         0.0000000000
lattice_vector        0.4661143596         3.1987317450        13.9606500723
atom     4.683089256         3.096016169         0.221695125 C
atom     2.765178204         7.702466965        13.738955498 C 
atom     3.702712536         3.096509218         1.218904376 C 
atom     3.745554924         7.701973915        12.741745949 C 
atom     3.871925354         2.424565077         2.442276239 C 
atom     3.576341867         8.373917580        11.518374443 C 
atom     2.902019739         2.438194990         3.423849583 C 
atom     4.546247959         8.360288620        10.536801338 C 
atom     3.074380398         1.776008129         4.676538944 C 
atom     4.373887062         9.022475243         9.284111977 C 
atom     2.112797976         1.821471930         5.621255875 C 
atom     5.335469246         8.977011681         8.339394569 C 
atom     0.899327517         2.535963297         5.396210194 C 
atom     6.548940182         8.262519836         8.564439774 C 
atom     0.687804341         3.177071333         4.230635643 C 
atom     6.760463238         7.621411324         9.730014801 C 
atom     1.676450253         3.163318157         3.195453405 C 
atom     5.771817684         7.635164738        10.765196800 C 
atom     1.487169981         3.825028658         1.997071028 C 
atom     5.961097717         6.973454952        11.963579178 C 
atom     4.976540565         6.974234104        12.975307465 C 
atom     2.471727133         3.824248791         0.985342681 C 
atom     6.258445263        10.334058762        13.376536369 C 
atom     1.189823031         0.464424103         0.584113598 C 
atom     5.963980198         7.025591373         0.797711551 C 
atom     1.484287024         3.772891283        13.162939072 C 
atom     4.977693081         6.460452080         1.634792209 C 
atom     2.470574379         4.338030815        12.325858116 C 
atom     5.154878139         6.351414680         3.003075600 C 
atom     2.293389320         4.447069168        10.957574844 C 
atom     4.157850266         5.771034718         3.849928617 C 
atom     3.290417910         5.027448654        10.110721588 C 
atom     4.356963634         5.667382717         5.178703308 C 
atom     3.091303587         5.131100178         8.781947136 C 
atom     5.558690548         6.143461227         5.777196407 C 
atom     1.889576793         4.655021667         8.183453560 C 
atom     6.538185120         6.694803238         5.012571812 C 
atom     0.910082281         4.103680134         8.948078156 C 
atom     6.374182701         6.822453022         3.599474430 C 
atom     1.074085236         3.976030350        10.361175537 C 
atom     1.114689350         7.384909153         2.793805361 C 
atom     6.333578587         3.413573503        11.166845322 C 
atom     6.496078014         3.292205572        12.557604790 C 
atom     0.952189147         7.506277561         1.403045416 C 
atom     5.536669254         2.601243734         0.374145418 H
atom     1.911597967         8.197239876        13.586504936 H
atom     4.734618664         1.935641885         2.577136040 H
atom     2.713649035         8.862841606        11.383514404 H
atom     3.915854931         1.283794641         4.840157509 H
atom     3.532412529         9.514688492         9.120492935 H
atom     2.946575403         8.987404823         6.487514496 H
atom     4.501692295         1.811077833         7.473136425 H
atom     6.466358185         2.529646158         6.131517887 H
atom     0.981909573         8.268836975         7.829132080 H
atom     6.079454899         3.655942917         4.048588276 H
atom     1.368812561         7.142540455         9.912062645 H
atom     0.656933725         4.342424870         1.837221742 H
atom     6.791334152         6.456058502        12.123428345 H
atom     5.397080898        10.028988838        12.990386009 H
atom     2.051186800         0.769493937         0.970265210 H
atom     4.133432865         6.150338650         1.203408003 H
atom     3.314834833         4.648144722        12.757242203 H
atom     3.317096472         5.462334633         3.441300392 H
atom     4.131171227         5.336148739        10.519350052 H
atom     3.657898664         5.241588593         5.761560440 H
atom     3.790368795         5.556894779         8.199090004 H
atom     5.670433521         6.058037281         6.770915508 H
atom     1.777834296         4.740445614         7.189734936 H
atom     1.135535359         7.045476437         5.441861629 H
atom     6.312732220         3.753007174         8.518788338 H
atom     1.994104743         7.718600750         3.205365419 H
atom     5.454162598         3.079882622        10.755285263 H
