# Straumanis M.E., and Kim C.D., Phase Extent of Gallium Arsenide Determined by the Lattice Constant and Density Method, Acta Crystallogr., Vol. 19, 1965, p 256-259
lattice_vector           0   2.8266   2.8266
lattice_vector      2.8266        0   2.8266
lattice_vector      2.8266   2.8266        0

atom_frac        0        0        0 Ga
atom_frac     0.25     0.25     0.25 As
