# H2O

xc                 pw-lda
mr_experimental
magnetic_response  J_coupling shielding magnet full

# NAO-VCC-2Z
  species        O
#     set basis set reference for FHI-aims output
    cite_reference NAO-VCC-2013
#     global species definitions
    nucleus             8
    mass                15.9994
#
    l_hartree           6
#
    cut_pot             4.0  2.0  1.0
    basis_dep_cutoff    0e-4
#
    radial_base         36 7.0
    radial_multiplier   2
    angular_grids       specified
      division   0.1817   50
      division   0.3417  110
      division   0.4949  194
      division   0.6251  302
      division   0.8014  434
      division   0.8507  590
#      division   0.8762  770
#      division   0.9023  974
#      division   1.2339 1202
#      outer_grid 974
      outer_grid 770
#      outer_grid  434
################################################################################
#
#  Definition of "minimal" basis
#
################################################################################
#     valence basis states
    valence      2  s   2.
    valence      2  p   4.
#     ion occupancy
    ion_occ      2  s   1.
    ion_occ      2  p   3.
################################################################################

 basis_acc              1e-04
#============================================
# Optimization in      O for       NAO-VCC-2Z
#============================================
# (sp) correlation set
 hydro     1     s      2.23708336
 hydro     2     p      2.74937660
# polarization set
 hydro     3     d      8.47402309
# (sp) enhanced minimal basis
 hydro     1     s      3.20557153
 hydro     1     s      3.77407176
 hydro     2     p      4.51571086

 species        H
#     set basis set reference for FHI-aims output
    cite_reference NAO-VCC-2013
#     global species definitions
    nucleus             1
    mass                1.00794
#
    l_hartree           6
#
    cut_pot             4.0  2.0  1.0
    basis_dep_cutoff    0e-4
#     
    radial_base         24 7.0
    radial_multiplier   2
    angular_grids       specified
      division   0.1930   50
      division   0.3175  110
      division   0.4293  194
      division   0.5066  302
      division   0.5626  434
      division   0.5922  590
#      division   0.6227  974
#      division   0.6868 1202
      outer_grid  770
#      outer_grid  434
################################################################################
#
#  Definition of "minimal" basis
#
################################################################################
#     valence basis states
    valence      1  s   1.
#     ion occupancy
    ion_occ      1  s   0.5
################################################################################


 basis_acc              1e-04
#============================================
# Optimization in      H for       NAO-VCC-2Z
#============================================
# (sp) correlation set
 hydro     1     s      1.41783129
 hydro     2     p      2.95678992
# (sp) enhanced minimal basis
 hydro     1     s      1.47748612
