output_level                       MD_light
xc                                 pw-lda
relativistic                       atomic_zora scalar
relax_geometry                     trm 1E-2
relax_unit_cell                    full
k_grid                             2 2 2

################################################################################
#
#  FHI-aims code project
#  VB, Fritz-Haber Institut, 2009
#
#  Suggested "light" defaults for Al atom (to be pasted into control.in file)
#  Be sure to double-check any results obtained with these settings for post-processing,
#  e.g., with the "tight" defaults and larger basis sets.
#
################################################################################
  species        Al
#     global species definitions
    nucleus             13
    mass                26.9815386
#
    l_hartree           4
#
    cut_pot             3.5          1.5  1.0
    basis_dep_cutoff    1e-4
#
    radial_base         41 5.0
    radial_multiplier   1
    angular_grids       specified
      division   0.6594  110
      division   0.8170  194
      division   0.9059  302
#      division   1.0363  434
#      division   1.1443  590
#      division   1.2621  770
#      division   2.8177  974
#      outer_grid   974
      outer_grid   302
################################################################################
#
#  Definition of "minimal" basis
#
################################################################################
#     valence basis states
    valence      3  s   2.
    valence      3  p   1.
#     ion occupancy
    ion_occ      3  s   1.
    ion_occ      2  p   6.
################################################################################
#
#  Suggested additional basis functions. For production calculations, 
#  uncomment them one after another (the most important basis functions are
#  listed first).
#
#  Constructed for dimers: 2.0 A, 2.5 A, 3.0 A, 3.75 A, 4.5 A
#
################################################################################
#  "First tier" - improvements: -199.47 meV to -10.63 meV
     ionic 3 d auto
     ionic 3 p auto
#     hydro 4 f 4.7
     ionic 3 s auto
#  "Second tier" - improvements: -5.35 meV to -1.57 meV
#     hydro 5 g 7
#     hydro 3 d 6
#     hydro 2 s 11.6
#     hydro 2 p 0.9
#  "Third tier" - improvements: -0.63 meV to -0.20 meV
#     hydro 5 f 7.6
#     hydro 4 p 7.2
#     hydro 4 s 3.7
#     hydro 4 d 7.6
#  "Fourth tier" - improvements: -0.17 meV to -0.08 meV
#     hydro 4 d 13.6
#     hydro 5 g 11.2
#     hydro 4 d 0.9
#     hydro 1 s 0.4
#     hydro 4 p 0.1
#     hydro 5 f 9.8
#  Further basis functions that fell out of the optimization - noise level...
#     hydro 4 p 5

################################################################################
#
#  FHI-aims code project
#  VB, Fritz-Haber Institut, 2009
#
#  Suggested "light" defaults for S atom (to be pasted into control.in file)
#  Be sure to double-check any results obtained with these settings for post-processing,
#  e.g., with the "tight" defaults and larger basis sets.
#
################################################################################
  species        S
#     global species definitions
    nucleus             16
    mass                32.065
#
    l_hartree           4
#
    cut_pot             3.5          1.5  1.0
    basis_dep_cutoff    1e-4
#
    radial_base         44 5.0
    radial_multiplier   1
    angular_grids       specified
      division   0.4665  110
      division   0.5810  194
      division   0.7139  302
#      division   0.8274  434
#      division   0.9105  590
#      division   1.0975  770
#      division   1.2028  974
#      outer_grid  974
      outer_grid  302
################################################################################
#
#  Definition of "minimal" basis
#
################################################################################
#     valence basis states
    valence      3  s   2.
    valence      3  p   4.
#     ion occupancy
    ion_occ      3  s   1.
    ion_occ      3  p   3.
################################################################################
#
#  Suggested additional basis functions. For production calculations, 
#  uncomment them one after another (the most important basis functions are
#  listed first).
#
#  Constructed for dimers: 1.6 A, 1.9 A, 2.5 A, 3.25 A, 4.0 A
#
################################################################################
#  "First tier" - improvements: -652.81 meV to -45.53 meV
     ionic 3 d auto
     hydro 2 p 1.8
#     hydro 4 f 7
     ionic 3 s auto
#  "Second tier" - improvements: -30.20 meV to -1.74 meV
#     hydro 4 d 6.2
#     hydro 5 g 10.8
#     hydro 4 p 4.9
#     hydro 5 f 10
#     hydro 1 s 0.8
#  "Third tier" - improvements: -1.04 meV to -0.20 meV
#     hydro 3 d 3.9
#     hydro 3 d 2.7
#     hydro 5 g 12
#     hydro 4 p 10.4
#     hydro 5 f 12.4
#     hydro 2 s 1.9
#  "Fourth tier" - improvements: -0.35 meV to -0.06 meV
#     hydro 4 d 10.4
#     hydro 4 p 7.2
#     hydro 4 d 10
#     hydro 5 g 19.2
#     hydro 4 s 12

################################################################################
#
#  FHI-aims code project
#  VB, Fritz-Haber Institut, 2010
#
#  Suggested "light" defaults for Zn atom (to be pasted into control.in file)
#  Be sure to double-check any results obtained with these settings for post-processing,
#  e.g., with the "tight" defaults and larger basis sets.
#
################################################################################
  species        Zn
#     global species definitions
    nucleus             30
    mass                65.409
#
    l_hartree           4
#
    cut_pot             3.5          1.5  1.0
    basis_dep_cutoff    1e-4
#
    radial_base         53 5.0
    radial_multiplier   1
    angular_grids       specified
      division   0.5114   50
      division   0.8989  110
      division   1.2692  194
      division   1.6226  302
#      division   1.7854  434
#      division   2.0877  590
#      division   2.1298  770
#      division   2.1730  974
#      division   2.5659 1202
      outer_grid  302
################################################################################
#
#  Definition of "minimal" basis
#
################################################################################
#     valence basis states
    valence      4  s   2.
    valence      3  p   6.
    valence      3  d  10.
#     ion occupancy
    ion_occ      4  s   1.
    ion_occ      3  p   6.
    ion_occ      3  d   9.
################################################################################
#
#  Suggested additional basis functions. For production calculations, 
#  uncomment them one after another (the most important basis functions are
#  listed first).
#
#  Constructed for dimers: 2.00 A, 2.30 A, 2.85 A, 3.50 A, 4.25 A
#
################################################################################
#  "First tier" - improvements: -270.82 meV to -12.81 meV 
     hydro 2 p 1.7
     hydro 3 s 2.9
     hydro 4 p 5.4
     hydro 4 f 7.8
     hydro 3 d 4.5
#  "Second tier" - improvements: -3.35 meV to -0.82 meV
#     hydro 5 g 10.8
#     hydro 2 p 2.4
#     hydro 3 s 6.2
#     hydro 3 d 3
#  "Third tier" - improvements: -0.61 meV to -0.12 meV
#     hydro 6 h 15.2
#     ionic 4 p auto
#     hydro 5 s 12.8
#     hydro 4 f 5.4    
#     hydro 4 d 7      
#  Further functions - improvements: -0.16 meV and below
#     hydro 4 f 20   
#     hydro 3 p 2.2  
#     hydro 5 f 6.4  
#     hydro 5 g 8    
