lattice_vector     -2.61220139      2.61220139      5.09108609
lattice_vector      2.61220139     -2.61220139      5.09108609
lattice_vector      2.61220139      2.61220139     -5.09108609
atom_frac       0.50000000      0.50000000     -0.00000000 Al
atom_frac       0.75000000      0.25000000      0.50000000 Al
atom_frac       1.60477086      1.62214613      1.49164250 S
atom_frac       0.13050362      0.11312836     -1.49164250 S
atom_frac      -1.62214613     -0.13050362     -0.01737527 S
atom_frac      -0.11312836     -1.60477086      0.01737527 S
atom_frac       0.00000000      0.00000000      0.00000000 Zn
symmetry_n_params 5 2 3
symmetry_params a c x4 y4 z4
symmetry_lv -(1.0/2.0)*a , (1.0/2.0)*a , (1.0/2.0)*c
symmetry_lv (1.0/2.0)*a , -(1.0/2.0)*a , (1.0/2.0)*c
symmetry_lv (1.0/2.0)*a , (1.0/2.0)*a , -(1.0/2.0)*c
symmetry_frac (1.0/2.0) , (1.0/2.0) , 0.0
symmetry_frac (3.0/4.0) , (1.0/4.0) , (1.0/2.0)
symmetry_frac (y4+z4) , (z4+x4) , (x4+y4)
symmetry_frac (z4-y4) , (z4-x4) , -(x4+y4)
symmetry_frac -(z4+x4) , (y4-z4) , (y4-x4)
symmetry_frac (x4-z4) , -(y4+z4) , (x4-y4)
symmetry_frac 0.0 , 0.0 , 0.0
