# Geometry for the system and leads. The transport takes place
# from the direction of negative x-axis to the direction of
# positive x-axis. The atoms 1-5 correspond to lead number 1 and
# atoms 11-15 to lead number 2.

lattice_vector   0.0000000000e+00    5.0000000000e+01   0.0000000000e+00 
lattice_vector   0.0000000000e+00    0.0000000000e+00   5.0000000000e+01 
lattice_vector   39.0000000000e+00   0.0000000000e+00   0.0000000000e+00 

# lead 1
atom   0.0000000000e+00   0.0000000000e+00   0.0000000000e+00 Au
atom   2.6000000000e+00   0.0000000000e+00   0.0000000000e+00 Au
atom   5.2000000000e+00   0.0000000000e+00   0.0000000000e+00 Au
atom   7.8000000000e+00   0.0000000000e+00   0.0000000000e+00 Au

# system along the x-axis, this is the "device" region
atom   10.4000000000e+00   0.0000000000e+00   0.0000000000e+00 Au
atom   13.0000000000e+00   0.0000000000e+00   0.0000000000e+00 Au
atom   15.6000000000e+00   0.0000000000e+00   0.0000000000e+00 Au
atom   18.2000000000e+00   0.0000000000e+00   0.0000000000e+00 Au
atom   20.8000000000e+00   0.0000000000e+00   0.0000000000e+00 Au
atom   23.4000000000e+00   0.0000000000e+00   0.0000000000e+00 Au
atom   26.0000000000e+00   0.0000000000e+00   0.0000000000e+00 Au

# lead 2
atom   28.6000000000e+00   0.0000000000e+00   0.0000000000e+00 Au
atom   31.2000000000e+00   0.0000000000e+00   0.0000000000e+00 Au
atom   33.8000000000e+00   0.0000000000e+00   0.0000000000e+00 Au
atom   36.4000000000e+00   0.0000000000e+00   0.0000000000e+00 Au
