#
#  fcc Cu
#  Equilibrium lattice parameter: 3.52 A (LDA, relativistic)
#
  atom 0. 0. 0. Cu
# 
# unit cell
#
lattice_vector  1.76 1.76 0.0
lattice_vector  0.0  1.76 1.76
lattice_vector  1.76 0.0  1.76
